#Lammps data file. Generated with GRO2LAM converter.

 34 atoms
 34 bonds
 57 angles
 78 dihedrals
 3 impropers

 479 atom types
 1453 bond types
 5047 angle types
 10549 dihedral types
 345 improper types


 21.8900 71.8900 xlo xhi
 21.0100 71.0100 ylo yhi
 23.6700 73.6700 zlo zhi

 Masses

 1 107.868200 # AG
 2 26.981540 # AL
 3 26.981540 # ALG1
 4 196.966500 # AU
 5 137.327000 # BAR
 6 10.811000 # BG201
 7 79.904000 # BRGA1
 8 79.904000 # BRGA2
 9 79.904000 # BRGA3
 10 79.904000 # BRGR1
 11 12.011000 # C
 12 12.011000 # C3
 13 12.011000 # CA
 14 112.411000 # CAD
 15 12.011000 # CAI
 16 40.080000 # CAL
 17 12.011000 # CAP
 18 12.011000 # CC
 19 12.011000 # CC1A
 20 12.011000 # CC1B
 21 12.011000 # CC2
 22 12.011000 # CC2O1
 23 12.011000 # CC2O2
 24 12.011000 # CC2O3
 25 12.011000 # CC2O4
 26 12.011000 # CC2O5
 27 12.011000 # CC301
 28 12.011000 # CC3051
 29 12.011000 # CC3062
 30 12.011000 # CC30A
 31 12.011000 # CC311
 32 12.011000 # CC311C
 33 12.011000 # CC311D
 34 12.011000 # CC312
 35 12.011000 # CC312C
 36 12.011000 # CC312D
 37 12.011000 # CC3151
 38 12.011000 # CC3152
 39 12.011000 # CC3153
 40 12.011000 # CC3161
 41 12.011000 # CC3162
 42 12.011000 # CC3163
 43 12.011000 # CC31A
 44 12.011000 # CC321
 45 12.011000 # CC321C
 46 12.011000 # CC321D
 47 12.011000 # CC322
 48 12.011000 # CC322C
 49 12.011000 # CC3251
 50 12.011000 # CC325A
 51 12.011000 # CC325B
 52 12.011000 # CC3261
 53 12.011000 # CC3263
 54 12.011000 # CC326A
 55 12.011000 # CC32A
 56 12.011000 # CC331
 57 12.011000 # CC33A
 58 12.011000 # CCL
 59 12.011000 # CD
 60 12.011000 # CE1
 61 12.011000 # CE2
 62 12.011000 # CEL1
 63 12.011000 # CEL2
 64 12.011000 # CEL3
 65 132.900000 # CES
 66 12.011000 # CF1
 67 12.011000 # CF2
 68 12.011000 # CF3
 69 12.011000 # CG1N1
 70 12.011000 # CG1T1
 71 12.011000 # CG1T2
 72 12.011000 # CG251O
 73 12.011000 # CG252O
 74 12.011000 # CG25C1
 75 12.011000 # CG25C2
 76 12.011000 # CG2D1
 77 12.011000 # CG2D1O
 78 12.011000 # CG2D2
 79 12.011000 # CG2D2O
 80 12.011000 # CG2DC1
 81 12.011000 # CG2DC2
 82 12.011000 # CG2DC3
 83 12.011000 # CG2N1
 84 12.011000 # CG2N2
 85 12.011000 # CG2O1
 86 12.011000 # CG2O2
 87 12.011000 # CG2O3
 88 12.011000 # CG2O4
 89 12.011000 # CG2O5
 90 12.011000 # CG2O6
 91 12.011000 # CG2O7
 92 12.011000 # CG2R51
 93 12.011000 # CG2R52
 94 12.011000 # CG2R53
 95 12.011000 # CG2R57
 96 12.011000 # CG2R61
 97 12.011000 # CG2R62
 98 12.011000 # CG2R63
 99 12.011000 # CG2R64
 100 12.011000 # CG2R66
 101 12.011000 # CG2R67
 102 12.011000 # CG2R71
 103 12.011000 # CG2RC0
 104 12.011000 # CG2RC7
 105 12.011000 # CG301
 106 12.011000 # CG302
 107 12.011000 # CG311
 108 12.011000 # CG312
 109 12.011000 # CG314
 110 12.011000 # CG321
 111 12.011000 # CG322
 112 12.011000 # CG323
 113 12.011000 # CG324
 114 12.011000 # CG331
 115 12.011000 # CG334
 116 12.011000 # CG3AM0
 117 12.011000 # CG3AM1
 118 12.011000 # CG3AM2
 119 12.011000 # CG3C31
 120 12.011000 # CG3C41
 121 12.011000 # CG3C50
 122 12.011000 # CG3C51
 123 12.011000 # CG3C52
 124 12.011000 # CG3C53
 125 12.011000 # CG3C54
 126 12.011000 # CG3RC1
 127 12.011000 # CL
 128 35.450000 # CLA
 129 35.453000 # CLAL
 130 35.453000 # CLGA1
 131 35.453000 # CLGA3
 132 35.453000 # CLGR1
 133 12.011000 # CM
 134 12.011000 # CN
 135 12.011000 # CN1
 136 12.011000 # CN1A
 137 12.011000 # CN1T
 138 12.011000 # CN2
 139 12.011000 # CN3
 140 12.011000 # CN3A
 141 12.011000 # CN3B
 142 12.011000 # CN3C
 143 12.011000 # CN3D
 144 12.011000 # CN3T
 145 12.011000 # CN4
 146 12.011000 # CN5
 147 12.011000 # CN5G
 148 12.011000 # CN6
 149 12.011000 # CN7
 150 12.011000 # CN7B
 151 12.011000 # CN7E
 152 12.011000 # CN8
 153 12.011000 # CN8B
 154 12.011000 # CN9
 155 12.011000 # CNA
 156 12.011000 # CNA2
 157 12.011000 # CNE1
 158 12.011000 # CNE2
 159 12.011000 # CNG
 160 12.011000 # COA
 161 12.011000 # CP1
 162 12.011000 # CP2
 163 12.011000 # CP3
 164 12.011000 # CPA
 165 12.011000 # CPB
 166 12.011000 # CPD1
 167 12.011000 # CPH1
 168 12.011000 # CPH2
 169 12.011000 # CPM
 170 12.011000 # CPT
 171 12.011000 # CRL1
 172 12.011000 # CRL2
 173 12.011000 # CS
 174 12.011000 # CST
 175 12.011000 # CT
 176 12.011000 # CT1
 177 12.011000 # CT1X
 178 12.011000 # CT2
 179 12.011000 # CT2A
 180 12.011000 # CT2P
 181 12.011000 # CT2X
 182 12.011000 # CT3
 183 12.011000 # CT3X
 184 12.011000 # CTD1
 185 12.011000 # CTL1
 186 12.011000 # CTL2
 187 12.011000 # CTL3
 188 12.011000 # CTL5
 189 12.011000 # CTO1
 190 12.011000 # CTO2
 191 63.546000 # CU
 192 12.011000 # CY
 193 1.008000 # DUM
 194 18.998000 # F1
 195 18.998000 # F2
 196 18.998000 # F3
 197 18.998000 # FA
 198 55.847000 # FE
 199 18.998000 # FGA1
 200 18.998000 # FGA2
 201 18.998000 # FGA3
 202 18.998000 # FGP1
 203 18.998000 # FGR1
 204 18.998400 # FNA
 205 1.008000 # H
 206 1.008000 # HA
 207 1.008000 # HA1
 208 1.008000 # HA2
 209 1.008000 # HA3
 210 1.008000 # HAL
 211 1.008000 # HAL1
 212 1.008000 # HAL2
 213 1.008000 # HAL3
 214 1.008000 # HB
 215 1.008000 # HB1
 216 1.008000 # HB2
 217 1.008000 # HBL
 218 1.008000 # HC
 219 1.008000 # HCA1
 220 1.008000 # HCA1A
 221 1.008000 # HCA1C2
 222 1.008000 # HCA2
 223 1.008000 # HCA25A
 224 1.008000 # HCA2A
 225 1.008000 # HCA2C2
 226 1.008000 # HCA3
 227 1.008000 # HCA3A
 228 1.008000 # HCA3M
 229 1.008000 # HCL
 230 1.008000 # HCP1
 231 1.008000 # HCP1M
 232 1.008000 # HCR1
 233 4.002600 # HE
 234 1.008000 # HE1
 235 1.008000 # HE2
 236 1.008000 # HEL1
 237 1.008000 # HEL2
 238 1.008000 # HF1
 239 1.008000 # HF2
 240 1.008000 # HGA1
 241 1.008000 # HGA2
 242 1.008000 # HGA3
 243 1.008000 # HGA4
 244 1.008000 # HGA5
 245 1.008000 # HGA6
 246 1.008000 # HGA7
 247 1.008000 # HGAAM0
 248 1.008000 # HGAAM1
 249 1.008000 # HGAAM2
 250 1.008000 # HGP1
 251 1.008000 # HGP2
 252 1.008000 # HGP3
 253 1.008000 # HGP4
 254 1.008000 # HGP5
 255 1.008000 # HGPAM1
 256 1.008000 # HGPAM2
 257 1.008000 # HGPAM3
 258 1.008000 # HGR51
 259 1.008000 # HGR52
 260 1.008000 # HGR53
 261 1.008000 # HGR61
 262 1.008000 # HGR62
 263 1.008000 # HGR63
 264 1.008000 # HGR71
 265 1.008000 # HL
 266 1.008000 # HN1
 267 1.008000 # HN2
 268 1.008000 # HN3
 269 1.008000 # HN3B
 270 1.008000 # HN4
 271 1.008000 # HN5
 272 1.008000 # HN6
 273 1.008000 # HN7
 274 1.008000 # HN8
 275 1.008000 # HN9
 276 1.008000 # HNE1
 277 1.008000 # HNE2
 278 1.008000 # HNP
 279 1.008000 # HOL
 280 1.008000 # HP
 281 1.008000 # HPER
 282 1.008000 # HR1
 283 1.008000 # HR2
 284 1.008000 # HR3
 285 1.008000 # HS
 286 1.008000 # HSIA
 287 1.008000 # HSIO
 288 4.032 # HT
 289 1.008000 # HT
 290 4.032 # HT
 291 1.008000 # HT
 292 1.008000 # HX
 293 126.904470 # IGR1
 294 6.941000 # LIT
 295 0.01008 # LPH
 296 24.305000 # MG
 297 14.007000 # N
 298 14.007000 # NC
 299 14.007000 # NC2
 300 14.007000 # NC2D1
 301 14.007000 # NC311
 302 20.179700 # NE
 303 14.007000 # NG1T1
 304 14.007000 # NG2D1
 305 14.007000 # NG2O1
 306 14.007000 # NG2P1
 307 14.007000 # NG2R43
 308 14.007000 # NG2R50
 309 14.007000 # NG2R51
 310 14.007000 # NG2R52
 311 14.007000 # NG2R53
 312 14.007000 # NG2R57
 313 14.007000 # NG2R60
 314 14.007000 # NG2R61
 315 14.007000 # NG2R62
 316 14.007000 # NG2R67
 317 14.007000 # NG2RC0
 318 14.007000 # NG2S0
 319 14.007000 # NG2S1
 320 14.007000 # NG2S2
 321 14.007000 # NG2S3
 322 14.007000 # NG301
 323 14.007000 # NG311
 324 14.007000 # NG321
 325 14.007000 # NG331
 326 14.007000 # NG3C51
 327 14.007000 # NG3N1
 328 14.007000 # NG3P0
 329 14.007000 # NG3P1
 330 14.007000 # NG3P2
 331 14.007000 # NG3P3
 332 14.007000 # NH1
 333 14.007000 # NH2
 334 14.007000 # NH3
 335 14.007000 # NH3L
 336 14.007000 # NHL
 337 58.693400 # NI
 338 14.007000 # NN1
 339 14.007000 # NN1C
 340 14.007000 # NN2
 341 14.007000 # NN2B
 342 14.007000 # NN2C
 343 14.007000 # NN2G
 344 14.007000 # NN2U
 345 14.007000 # NN3
 346 14.007000 # NN3A
 347 14.007000 # NN3G
 348 14.007000 # NN3I
 349 14.007000 # NN4
 350 14.007000 # NN6
 351 14.007000 # NNG
 352 14.007000 # NP
 353 14.007000 # NPH
 354 14.007000 # NR1
 355 14.007000 # NR2
 356 14.007000 # NR3
 357 14.007000 # NS1
 358 14.007000 # NS2
 359 14.007000 # NTL
 360 14.007000 # NY
 361 15.999400 # O
 362 15.999400 # O2L
 363 15.999000 # OAL
 364 15.999400 # OB
 365 15.999400 # OBL
 366 15.999400 # OC
 367 15.999400 # OC2D1
 368 15.999400 # OC2D2
 369 15.999400 # OC2D3
 370 15.999400 # OC2D4
 371 15.999400 # OC2DP
 372 15.999400 # OC301
 373 15.999400 # OC302
 374 15.999400 # OC303
 375 15.999400 # OC305A
 376 15.999400 # OC30A
 377 15.999400 # OC30P
 378 15.999400 # OC311
 379 15.999400 # OC311M
 380 15.999400 # OC312
 381 15.999400 # OC3C51
 382 15.999400 # OC3C5M
 383 15.999400 # OC3C61
 384 15.999000 # OCA
 385 15.999400 # OCL
 386 15.999400 # OG2D1
 387 15.999400 # OG2D2
 388 15.999400 # OG2D3
 389 15.999400 # OG2D4
 390 15.999400 # OG2D5
 391 15.999400 # OG2N1
 392 15.999400 # OG2P1
 393 15.999400 # OG2R50
 394 15.999400 # OG2S1
 395 15.999400 # OG301
 396 15.999400 # OG302
 397 15.999400 # OG303
 398 15.999400 # OG304
 399 15.999400 # OG311
 400 15.999400 # OG312
 401 15.999400 # OG3C31
 402 15.999400 # OG3C51
 403 15.999400 # OG3C61
 404 15.999400 # OG3R60
 405 15.999400 # OH1
 406 15.999400 # OHL
 407 15.999000 # OM
 408 15.999400 # ON1
 409 15.999400 # ON1C
 410 15.999400 # ON2
 411 15.999400 # ON2B
 412 15.999400 # ON2M
 413 15.999400 # ON3
 414 15.999400 # ON4
 415 15.999400 # ON5
 416 15.999400 # ON6
 417 15.999400 # ON6B
 418 15.999000 # OPER
 419 15.999400 # OS
 420 15.999000 # OSIA
 421 15.999000 # OSIE
 422 15.999000 # OSIH
 423 15.999400 # OSL
 424 15.999400 # OSLP
 425 15.999000 # OST
 426 15.999400 # OT
 427 9.951400 # OT
 428 15.999400 # OX
 429 30.974000 # P
 430 30.974000 # P2
 431 30.974000 # P3
 432 30.974000 # P4
 433 207.200000 # PB
 434 30.974000 # PC
 435 106.420000 # PD
 436 30.973800 # PG0
 437 30.973800 # PG1
 438 30.973800 # PG2
 439 30.974000 # PL
 440 39.102000 # POT
 441 195.084000 # PT
 442 85.467800 # RUB
 443 32.060000 # S
 444 32.060000 # SC
 445 78.960000 # SEGD1
 446 32.060000 # SG2D1
 447 32.060000 # SG2P1
 448 32.060000 # SG2P2
 449 32.060000 # SG2R50
 450 32.060000 # SG301
 451 32.060000 # SG302
 452 32.060000 # SG311
 453 32.060000 # SG3O1
 454 32.060000 # SG3O2
 455 32.060000 # SG3O3
 456 28.085500 # SI
 457 28.085500 # SIH3
 458 32.060000 # SL
 459 32.060000 # SM
 460 22.989770 # SOD
 461 32.060000 # SP
 462 32.060000 # SS
 463 65.370000 # ZN
 464 9.951400 # OWT4
 465 4.032000 # HWT4
 466 0.01008 # MWT4
 467 9.951400 # OW
 468 4.032000 # HW
 469 15.999400 # OWT4
 470 1.008000 # HWT4
 471 0.01008 # MWT4
 472 15.999400 # OW
 473 1.008000 # HW
 474 0.01008 # MNH3
 475 0.01008 # MNH2
 476 0.01008 # MCH3
 477 0.01008 # MCH3S
 478 0.01008 # MW
 479 24.305000 # MGA

 Pair Coeffs #

 1 4.55782 2.63261
 2 0.64969 3.91995
 3 0.64969 3.56359
 4 5.28747 2.62904
 5 0.14993 3.36760
 6 0.03798 4.54358
 7 0.47977 3.51014
 8 0.52975 3.65268
 9 0.53974 3.56359
 10 0.31985 3.52796
 11 0.10995 3.56359
 12 0.01999 4.05359
 13 0.06997 3.55005
 14 0.11994 2.41790
 15 0.07296 3.54578
 16 0.11994 2.43572
 17 0.06997 3.55005
 18 0.06997 3.56359
 19 0.06797 3.72396
 20 0.06797 3.72396
 21 0.06397 3.70614
 22 0.10995 3.56359
 23 0.06997 3.56359
 24 0.08996 3.56359
 25 0.05997 3.20724
 26 0.09795 3.02906
 27 0.03199 3.56359
 28 0.03199 3.56359
 29 0.03199 3.56359
 30 0.03199 3.56359
 31 0.03199 3.56359
 32 0.03199 3.56359
 33 0.03199 3.56359
 34 0.03199 3.56359
 35 0.03199 3.56359
 36 0.03199 3.56359
 37 0.03199 3.56359
 38 0.03199 3.56359
 39 0.03199 3.56359
 40 0.03199 3.56359
 41 0.03199 3.56359
 42 0.03199 3.56359
 43 0.03199 3.56359
 44 0.05597 3.58141
 45 0.05597 3.58141
 46 0.05597 3.58141
 47 0.05597 3.58141
 48 0.05997 3.59923
 49 0.05997 3.59923
 50 0.05997 3.59923
 51 0.05997 3.59923
 52 0.05597 3.58141
 53 0.05597 3.58141
 54 0.05597 3.58141
 55 0.05597 3.58141
 56 0.07796 3.63487
 57 0.07796 3.63487
 58 0.06997 3.56359
 59 0.06997 3.56359
 60 0.06797 3.72396
 61 0.06397 3.70614
 62 0.06797 3.72396
 63 0.06397 3.70614
 64 0.06797 3.72396
 65 0.18991 3.74177
 66 0.05997 3.38542
 67 0.04198 3.65268
 68 0.01999 4.09813
 69 0.17991 3.33196
 70 0.16692 3.27851
 71 0.10315 3.55023
 72 0.06797 3.72396
 73 0.06797 3.72396
 74 0.06797 3.72396
 75 0.06797 3.72396
 76 0.06797 3.72396
 77 0.06797 3.72396
 78 0.06397 3.70614
 79 0.06797 3.72396
 80 0.06797 3.72396
 81 0.06797 3.72396
 82 0.06397 3.70614
 83 0.10995 3.56359
 84 0.10995 3.56359
 85 0.10995 3.56359
 86 0.09795 3.02906
 87 0.06997 3.56359
 88 0.05997 3.20724
 89 0.08996 3.56359
 90 0.06997 3.56359
 91 0.05797 2.78495
 92 0.04998 3.74177
 93 0.01999 3.91995
 94 0.01999 3.91995
 95 0.04998 3.74177
 96 0.06997 3.55005
 97 0.08996 3.38542
 98 0.09995 3.38542
 99 0.03998 3.74177
 100 0.06997 3.38542
 101 0.06997 3.55005
 102 0.06697 3.55433
 103 0.09895 3.31414
 104 0.09895 3.31414
 105 0.03199 3.56359
 106 0.01999 4.09813
 107 0.03199 3.56359
 108 0.04198 3.65268
 109 0.03098 3.85759
 110 0.05597 3.58141
 111 0.05997 3.38542
 112 0.10995 3.91995
 113 0.05497 3.87541
 114 0.07796 3.65268
 115 0.07696 3.94668
 116 0.06997 3.51014
 117 0.07796 3.52796
 118 0.07996 3.54578
 119 0.05597 3.58141
 120 0.06497 3.59923
 121 0.03598 3.58141
 122 0.03598 3.58141
 123 0.05997 3.59923
 124 0.03498 3.87541
 125 0.05897 3.89323
 126 0.03199 3.56359
 127 0.06997 3.56359
 128 0.14993 4.04468
 129 0.02999 3.40003
 130 0.34284 3.40323
 131 0.30985 3.40323
 132 0.22989 3.31414
 133 0.10995 3.74177
 134 0.19990 3.11815
 135 0.09995 3.38542
 136 0.06997 3.56359
 137 0.09995 3.38542
 138 0.09995 3.38542
 139 0.08996 3.38542
 140 0.17991 3.20724
 141 0.17991 3.20724
 142 0.17991 3.20724
 143 0.08996 3.38542
 144 0.08996 3.38542
 145 0.07496 3.38542
 146 0.07496 3.38542
 147 0.07496 3.38542
 148 0.01999 4.05359
 149 0.01999 4.05359
 150 0.01999 4.05359
 151 0.01999 4.05359
 152 0.05597 3.58141
 153 0.05597 3.58141
 154 0.07796 3.63487
 155 0.06997 3.55005
 156 0.06997 3.38542
 157 0.06797 3.72396
 158 0.06397 3.70614
 159 0.10995 3.56359
 160 0.10995 3.56359
 161 0.01999 4.05359
 162 0.05497 3.87541
 163 0.05497 3.87541
 164 0.08996 3.20724
 165 0.08996 3.20724
 166 0.01999 4.05359
 167 0.04998 3.20724
 168 0.04998 3.20724
 169 0.08996 3.20724
 170 0.09895 3.31414
 171 0.03598 3.58141
 172 0.05997 3.59923
 173 0.10995 3.91995
 174 0.05797 2.78495
 175 0.01999 4.05359
 176 0.03199 3.56359
 177 0.01999 4.05359
 178 0.05597 3.58141
 179 0.05597 3.58141
 180 0.05597 3.58141
 181 0.05597 3.58141
 182 0.07796 3.63487
 183 0.07796 3.63487
 184 0.03199 3.56359
 185 0.01999 4.05359
 186 0.05597 3.58141
 187 0.07796 3.63487
 188 0.07996 3.67050
 189 0.01999 4.05359
 190 0.05597 3.58141
 191 4.71774 2.33059
 192 0.07296 3.54578
 193 0.00000 0.00000
 194 0.13494 2.90433
 195 0.10495 2.90433
 196 0.09695 2.85088
 197 0.11994 3.02906
 198 0.15942 1.92452
 199 0.13494 2.90433
 200 0.10495 2.90433
 201 0.09695 2.85088
 202 0.09695 2.85088
 203 0.11994 3.02906
 204 0.11994 3.02906
 205 0.04598 0.40001
 206 0.02199 2.35197
 207 0.04498 2.38761
 208 0.03398 2.38761
 209 0.02399 2.38761
 210 0.02199 2.35197
 211 0.02199 2.35197
 212 0.02799 2.38761
 213 0.02399 2.38761
 214 0.02199 2.35197
 215 0.02199 2.35197
 216 0.02799 2.38761
 217 0.02199 2.35197
 218 0.04598 0.40001
 219 0.04498 2.38761
 220 0.04498 2.38761
 221 0.04498 2.38761
 222 0.03498 2.38761
 223 0.03498 2.31634
 224 0.03498 2.38761
 225 0.03498 2.31634
 226 0.02399 2.38761
 227 0.02399 2.38761
 228 0.02399 2.38761
 229 0.04598 0.40001
 230 0.04598 0.40001
 231 0.04598 0.40001
 232 0.04598 1.42544
 233 0.02126 2.63706
 234 0.03098 2.22725
 235 0.02599 2.24506
 236 0.03098 2.22725
 237 0.02599 2.24506
 238 0.02799 2.35197
 239 0.02999 2.31634
 240 0.04498 2.38761
 241 0.03498 2.38761
 242 0.02399 2.38761
 243 0.03098 2.22725
 244 0.02599 2.24506
 245 0.02799 2.35197
 246 0.02999 2.31634
 247 0.02799 2.28070
 248 0.02799 2.28070
 249 0.03998 2.24506
 250 0.04598 0.40001
 251 0.04598 0.40001
 252 0.09995 0.80181
 253 0.04598 0.40001
 254 0.04598 1.24726
 255 0.00900 1.55907
 256 0.01000 1.55907
 257 0.01199 1.55016
 258 0.02999 2.42004
 259 0.04598 1.60362
 260 0.04598 1.24726
 261 0.02999 2.42004
 262 0.04598 1.95998
 263 0.04598 1.60362
 264 0.02999 2.42004
 265 0.04598 1.24726
 266 0.04598 0.40001
 267 0.04598 0.40001
 268 0.04598 1.95998
 269 0.04598 1.60362
 270 0.04598 0.40001
 271 0.04598 0.40001
 272 0.02199 2.35197
 273 0.02199 2.35197
 274 0.02799 2.38761
 275 0.02399 2.38761
 276 0.03098 2.22725
 277 0.02599 2.24506
 278 0.02999 2.42004
 279 0.04598 0.40001
 280 0.02999 2.42004
 281 0.04598 0.40001
 282 0.04598 1.60362
 283 0.04598 1.24726
 284 0.00780 2.61568
 285 0.09995 0.80181
 286 0.02199 2.35197
 287 0.04598 0.40001
 288 0.00000 0.00000
 289 0.00000 0.00000
 290 0.04598 0.40001
 291 0.04598 0.40001
 292 0.04598 0.40001
 293 0.51975 3.99123
 294 0.00233 2.31188
 295 0.00000 0.00000
 296 0.01499 2.11143
 297 0.19990 3.29633
 298 0.59971 3.29633
 299 0.19990 3.29633
 300 0.19990 3.29633
 301 0.04498 3.56359
 302 0.08596 2.72615
 303 0.17991 3.18942
 304 0.19990 3.29633
 305 0.19990 3.29633
 306 0.19990 3.29633
 307 0.19990 3.29633
 308 0.19990 3.29633
 309 0.19990 3.29633
 310 0.19990 3.29633
 311 0.19990 3.29633
 312 0.19990 3.29633
 313 0.05997 3.36760
 314 0.19990 3.29633
 315 0.04998 3.67050
 316 0.19990 3.29633
 317 0.19990 3.29633
 318 0.19990 3.29633
 319 0.19990 3.29633
 320 0.19990 3.29633
 321 0.19990 3.29633
 322 0.03498 3.56359
 323 0.04498 3.56359
 324 0.05997 3.54578
 325 0.06997 3.52796
 326 0.19990 3.29633
 327 0.05997 3.65268
 328 0.19990 3.29633
 329 0.19990 3.29633
 330 0.19990 3.29633
 331 0.19990 3.29633
 332 0.19990 3.29633
 333 0.19990 3.29633
 334 0.19990 3.29633
 335 0.19990 3.29633
 336 0.19990 3.29633
 337 5.64730 2.27357
 338 0.19990 3.29633
 339 0.19990 3.29633
 340 0.19990 3.29633
 341 0.19990 3.29633
 342 0.19990 3.29633
 343 0.19990 3.29633
 344 0.19990 3.29633
 345 0.19990 3.29633
 346 0.19990 3.29633
 347 0.19990 3.29633
 348 0.19990 3.29633
 349 0.19990 3.29633
 350 0.19990 3.29633
 351 0.19990 3.29633
 352 0.19990 3.29633
 353 0.19990 3.29633
 354 0.19990 3.29633
 355 0.19990 3.29633
 356 0.19990 3.29633
 357 0.19990 3.29633
 358 0.19990 3.29633
 359 0.19990 3.29633
 360 0.19990 3.29633
 361 0.11994 3.02906
 362 0.11994 3.02906
 363 0.15203 3.15378
 364 0.11994 3.02906
 365 0.11994 3.02906
 366 0.11994 3.02906
 367 0.11994 3.02906
 368 0.11994 3.02906
 369 0.04998 3.02906
 370 0.11994 3.02906
 371 0.11994 3.02906
 372 0.09995 2.93997
 373 0.09995 2.93997
 374 0.09995 2.93997
 375 0.09995 2.93997
 376 0.09995 2.93997
 377 0.15203 3.15378
 378 0.19201 3.14487
 379 0.19201 3.14487
 380 0.15203 3.15378
 381 0.09995 2.93997
 382 0.09995 2.93997
 383 0.09995 2.93997
 384 0.11994 3.02906
 385 0.11994 3.02906
 386 0.11994 3.02906
 387 0.11994 3.02906
 388 0.04998 3.02906
 389 0.11994 3.02906
 390 0.16492 3.01480
 391 0.11994 3.02906
 392 0.11994 3.02906
 393 0.11994 3.02906
 394 0.14223 2.99271
 395 0.09995 2.93997
 396 0.09995 2.93997
 397 0.09995 2.93997
 398 0.09995 2.93997
 399 0.19201 3.14487
 400 0.11994 3.11815
 401 0.09995 2.93997
 402 0.09995 2.93997
 403 0.09995 2.93997
 404 0.09995 2.93997
 405 0.15203 3.15378
 406 0.15203 3.15378
 407 0.11994 3.02906
 408 0.11994 3.02906
 409 0.11994 3.02906
 410 0.15203 3.15378
 411 0.15203 3.15378
 412 0.09995 2.93997
 413 0.11994 3.02906
 414 0.15203 3.15378
 415 0.15203 3.15378
 416 0.15203 3.15378
 417 0.15203 3.15378
 418 0.20374 2.98314
 419 0.15203 3.15378
 420 0.15203 3.15378
 421 0.15203 3.15378
 422 0.15203 3.15378
 423 0.09995 2.93997
 424 0.09995 2.93997
 425 0.16492 3.01480
 426 0.15203 3.15057
 427 0.15203 3.15057
 428 0.11994 3.02906
 429 0.58472 3.83086
 430 0.58472 3.83086
 431 0.58472 3.83086
 432 0.58472 3.83086
 433 2.92860 3.17605
 434 0.58472 3.83086
 435 6.14706 2.51144
 436 0.58472 3.83086
 437 0.58472 3.83086
 438 0.58472 3.83086
 439 0.58472 3.83086
 440 0.08696 3.14265
 441 7.79627 2.53461
 442 0.14993 3.38542
 443 0.44978 3.56359
 444 0.46978 3.74177
 445 0.62270 3.87541
 446 0.56473 3.65268
 447 0.63050 3.73055
 448 0.61960 3.66088
 449 0.44978 3.56359
 450 0.37982 3.51905
 451 0.46978 3.91995
 452 0.44978 3.56359
 453 0.46978 3.74177
 454 0.34983 3.56359
 455 0.34983 3.56359
 456 0.59971 3.91995
 457 0.59971 3.91995
 458 0.46978 3.74177
 459 0.37982 3.51905
 460 0.04688 2.42993
 461 0.44978 3.91995
 462 0.46978 3.91995
 463 0.24988 1.94216
 464 0.15493 3.15365
 465 0.00000 0.00000
 466 0.00000 0.00000
 467 0.15533 3.16557
 468 0.00000 0.00000
 469 0.15493 3.15365
 470 0.00000 0.00000
 471 0.00000 0.00000
 472 0.15533 3.16557
 473 0.00000 0.00000
 474 0.00000 0.00000
 475 0.00000 0.00000
 476 0.00000 0.00000
 477 0.00000 0.00000
 478 0.00000 0.00000
 479 0.00295 2.77000

 Bond Coeffs #harmonic

 1 239.8853 1.4550
 2 304.8543 1.3750
 3 304.8543 1.3750
 4 299.8567 1.3600
 5 299.8567 1.3600
 6 359.8280 1.3850
 7 349.8328 1.3650
 8 349.8328 1.3650
 9 349.8328 1.4300
 10 374.8208 1.4920
 11 374.8208 1.4920
 12 339.8376 1.0800
 13 349.8328 1.0800
 14 269.8710 1.3700
 15 269.8710 1.3700
 16 537.2432 0.9760
 17 304.8543 1.3750
 18 439.7898 1.3400
 19 499.7611 1.3420
 20 364.8256 1.5020
 21 382.8170 1.5040
 22 509.7563 1.3300
 23 249.8806 1.4900
 24 249.8806 1.4900
 25 199.9044 1.4900
 26 222.3937 1.5270
 27 222.3937 1.5370
 28 222.3937 1.5370
 29 409.8041 1.3600
 30 249.8806 1.4900
 31 199.9044 1.5220
 32 199.9044 1.5220
 33 222.3937 1.5000
 34 249.8806 1.4900
 35 229.8901 1.4900
 36 199.9044 1.5220
 37 199.9044 1.5220
 38 229.5203 1.5000
 39 222.3937 1.5380
 40 222.3937 1.5300
 41 249.8806 1.4900
 42 229.8901 1.4900
 43 199.9044 1.5220
 44 199.9044 1.5220
 45 229.5203 1.5000
 46 189.9092 1.5310
 47 222.3937 1.5380
 48 222.3937 1.5280
 49 222.3937 1.5300
 50 329.8423 1.1100
 51 316.9785 1.1000
 52 308.8524 1.1110
 53 308.8524 1.1110
 54 299.8567 1.1110
 55 299.8567 1.1110
 56 308.8524 1.1110
 57 308.8524 1.1110
 58 321.8462 1.1110
 59 360.3278 1.1000
 60 364.8256 1.1000
 61 329.8423 1.0800
 62 329.8423 1.0800
 63 329.8423 1.0800
 64 339.8376 1.0800
 65 374.8208 1.0830
 66 339.8376 1.0900
 67 332.8409 1.0700
 68 364.8256 1.0830
 69 259.8758 1.3000
 70 319.8471 1.4340
 71 319.8471 1.4550
 72 449.7850 1.3650
 73 389.8137 1.4900
 74 389.8137 1.4900
 75 454.7826 1.0000
 76 369.8232 1.3450
 77 319.8471 1.4300
 78 319.8471 1.4300
 79 319.8471 1.4300
 80 439.7898 0.9970
 81 404.8065 0.9800
 82 429.7946 1.3600
 83 239.8853 1.4550
 84 239.8853 1.4550
 85 479.7707 1.0000
 86 459.7802 1.0000
 87 199.9044 1.4800
 88 199.9044 1.4800
 89 199.9044 1.4800
 90 402.8075 1.0400
 91 319.8471 1.4850
 92 319.8471 1.5020
 93 459.7802 1.0060
 94 399.8089 1.3800
 95 399.8089 1.3600
 96 465.7774 1.0000
 97 399.8089 1.3800
 98 399.8089 1.3200
 99 379.8184 1.3700
 100 379.8184 1.3200
 101 452.7836 1.0000
 102 619.7038 1.2300
 103 649.6894 1.2300
 104 749.6417 1.2200
 105 749.6417 1.2200
 106 524.7492 1.2600
 107 524.7492 1.2600
 108 449.7850 1.3300
 109 449.7850 1.3300
 110 334.1403 1.4110
 111 229.8901 1.4000
 112 427.7955 1.4200
 113 427.7955 1.4200
 114 427.7955 1.4200
 115 544.7396 0.9600
 116 149.9283 1.3340
 117 339.8376 1.4300
 118 197.9054 1.8180
 119 239.8853 1.8160
 120 274.8686 1.3250
 121 213.8978 1.8160
 122 213.8978 1.8160
 123 172.9173 2.0290
 124 204.9021 1.8360
 125 329.8423 1.1100
 126 719.6560 1.2050
 127 222.3937 1.5380
 128 222.3937 1.5300
 129 308.8524 1.1110
 130 229.5203 1.5000
 131 199.9044 1.5220
 132 189.9092 1.5380
 133 374.8208 1.4220
 134 344.8352 1.4350
 135 399.8089 1.4700
 136 399.8089 1.4700
 137 1052.4969 1.1800
 138 328.6329 1.7011
 139 959.5413 1.2200
 140 979.5318 1.2200
 141 344.8352 1.4350
 142 409.8041 1.4650
 143 409.8041 1.4650
 144 425.7965 1.0700
 145 439.7898 1.3400
 146 597.0646 1.3402
 147 569.7277 1.3400
 148 254.8782 1.4800
 149 344.5953 1.4113
 150 199.9044 1.4100
 151 199.9044 1.7700
 152 439.7898 1.3400
 153 597.0646 1.3402
 154 569.7277 1.3400
 155 254.8782 1.4800
 156 344.5953 1.4113
 157 199.9044 1.4100
 158 199.9044 1.7700
 159 499.7611 1.3420
 160 246.8820 1.4900
 161 289.8614 1.4800
 162 499.7611 1.3420
 163 246.8820 1.4900
 164 289.8614 1.4800
 165 439.7898 1.3400
 166 439.7898 1.3180
 167 499.7611 1.3420
 168 439.7898 1.3180
 169 239.8853 1.5020
 170 364.8256 1.5020
 171 364.8256 1.5020
 172 364.8256 1.5020
 173 369.8232 1.4950
 174 382.8170 1.5040
 175 499.7611 1.2760
 176 469.7754 1.2830
 177 360.3278 1.1000
 178 360.3278 1.1000
 179 599.7133 1.3400
 180 439.7898 1.3400
 181 285.8833 1.4925
 182 235.0876 1.4618
 183 343.8356 1.5092
 184 499.7611 1.3000
 185 365.0655 1.3770
 186 419.7993 1.3550
 187 419.7993 1.3550
 188 419.7993 1.4000
 189 384.8161 1.3600
 190 384.8161 1.3600
 191 652.8080 1.2590
 192 499.7611 1.3470
 193 190.3890 1.7704
 194 360.3278 1.1000
 195 509.7563 1.3300
 196 599.7133 1.3400
 197 364.8256 1.1000
 198 439.7898 1.3400
 199 285.8833 1.4925
 200 235.0876 1.4618
 201 343.8356 1.5092
 202 499.7611 1.3000
 203 365.0655 1.3770
 204 419.7993 1.3550
 205 419.7993 1.3550
 206 419.7993 1.4000
 207 384.8161 1.3600
 208 384.8161 1.3600
 209 652.8080 1.2590
 210 499.7611 1.3470
 211 190.3890 1.7704
 212 360.3278 1.1000
 213 439.7898 1.3400
 214 299.8567 1.4500
 215 499.7611 1.3420
 216 439.7898 1.4890
 217 299.8567 1.4800
 218 439.7898 1.4890
 219 299.8567 1.4798
 220 299.8567 1.4800
 221 345.0750 1.4254
 222 351.0322 1.4197
 223 364.8256 1.4500
 224 364.8256 1.5020
 225 364.8256 1.5020
 226 382.8170 1.5040
 227 499.7611 1.2760
 228 469.7754 1.2830
 229 360.3278 1.1000
 230 360.3278 1.1000
 231 439.7898 1.3400
 232 499.7611 1.3420
 233 439.7898 1.4890
 234 299.8567 1.4800
 235 439.7898 1.4890
 236 299.8567 1.4798
 237 299.8567 1.4800
 238 345.0750 1.4254
 239 351.0322 1.4197
 240 364.8256 1.4500
 241 364.8256 1.5020
 242 364.8256 1.5020
 243 382.8170 1.5040
 244 499.7611 1.2760
 245 469.7754 1.2830
 246 360.3278 1.1000
 247 360.3278 1.1000
 248 364.8256 1.1000
 249 499.7611 1.3100
 250 462.7788 1.3650
 251 499.7611 1.4400
 252 449.7850 1.4400
 253 324.8447 1.4200
 254 299.8567 1.4400
 255 279.8662 1.5000
 256 620.7033 1.2900
 257 474.7731 1.3200
 258 364.8256 1.4200
 259 186.9107 1.7900
 260 279.8662 1.4750
 261 299.8567 1.4750
 262 301.8557 1.4800
 263 249.8806 1.4900
 264 249.8806 1.4900
 265 249.8806 1.4900
 266 249.8806 1.4900
 267 249.8806 1.4900
 268 249.8806 1.4900
 269 249.8806 1.4900
 270 249.8806 1.4900
 271 339.4677 1.4304
 272 429.7946 1.3500
 273 369.8232 1.3450
 274 429.7946 1.3600
 275 619.7038 1.2300
 276 299.8567 1.6300
 277 316.9785 1.1000
 278 253.8786 1.4800
 279 199.9044 1.5220
 280 199.9044 1.5220
 281 199.9044 1.5220
 282 749.6417 1.2200
 283 149.9283 1.3340
 284 501.0405 1.3162
 285 229.8901 1.4000
 286 170.7684 1.7747
 287 347.8337 1.0960
 288 249.8806 1.5200
 289 199.9044 1.5000
 290 199.9044 1.5220
 291 199.9044 1.5220
 292 199.9044 1.5220
 293 199.9044 1.5220
 294 160.8731 1.4556
 295 199.9044 1.5220
 296 199.9044 1.5220
 297 249.8806 1.4900
 298 249.8806 1.4900
 299 369.8232 1.3450
 300 524.7492 1.2600
 301 237.8863 1.1422
 302 299.8567 1.4798
 303 389.8137 1.4640
 304 249.8806 1.5000
 305 249.8806 1.5000
 306 249.8806 1.5000
 307 188.9097 1.5600
 308 699.6656 1.2150
 309 699.6656 1.2100
 310 289.8614 1.3340
 311 329.8423 1.1100
 312 230.7397 1.5026
 313 336.7091 1.4215
 314 253.8786 1.4600
 315 329.8423 1.5000
 316 329.8423 1.5000
 317 329.8423 1.5000
 318 699.6656 1.2300
 319 369.9132 1.3650
 320 299.8567 1.4000
 321 444.7874 1.3600
 322 509.7563 1.3700
 323 429.7946 1.3600
 324 649.6894 1.2300
 325 314.3497 1.2940
 326 349.8328 1.3500
 327 184.9116 1.4800
 328 299.8567 1.6300
 329 189.9092 1.7500
 330 919.5604 1.1900
 331 985.5289 1.1700
 332 409.8041 1.3600
 333 359.8280 1.4000
 334 263.8739 1.5080
 335 409.8041 1.3600
 336 349.8328 1.4300
 337 339.8376 1.4050
 338 229.5203 1.5000
 339 229.5203 1.5000
 340 229.5203 1.5000
 341 229.5203 1.5000
 342 229.5203 1.5000
 343 349.8328 1.5100
 344 349.8328 1.5100
 345 349.8328 1.5100
 346 354.8304 1.4960
 347 324.8447 1.4960
 348 399.8089 1.3800
 349 399.8089 1.3800
 350 379.8184 1.3700
 351 399.8089 1.3800
 352 399.8089 1.3710
 353 359.8280 1.4120
 354 329.8423 1.4800
 355 449.7850 1.3710
 356 426.6061 1.3752
 357 526.3184 1.2744
 358 359.8280 1.3700
 359 299.8567 1.7300
 360 209.8997 1.7300
 361 349.8328 1.0800
 362 374.8208 1.0830
 363 399.8089 1.3800
 364 359.8280 1.4200
 365 294.8591 1.5000
 366 349.8328 1.5050
 367 399.8089 1.3150
 368 489.7659 1.3000
 369 374.8208 1.0830
 370 299.8567 1.4400
 371 424.7969 1.5000
 372 424.7969 1.5000
 373 424.7969 1.5000
 374 199.9044 1.5600
 375 184.9116 1.5100
 376 299.8567 1.5300
 377 299.8567 1.5300
 378 369.8232 1.3800
 379 399.8089 1.3200
 380 319.8471 1.3740
 381 379.8184 1.3200
 382 459.7802 1.3800
 383 379.8184 1.4000
 384 569.7277 1.2350
 385 449.7850 1.3710
 386 295.3588 1.3570
 387 399.8089 1.6300
 388 299.8567 1.7300
 389 169.9188 1.7700
 390 489.5960 1.3425
 391 339.8376 1.0900
 392 332.8409 1.0700
 393 412.8027 1.4500
 394 389.8137 1.3950
 395 304.8543 1.3750
 396 393.8118 1.3750
 397 264.8734 1.4270
 398 249.8806 1.3550
 399 304.8543 1.3700
 400 304.8543 1.3750
 401 299.8567 1.3600
 402 229.8901 1.4900
 403 197.9054 1.4500
 404 229.8901 1.4900
 405 197.9054 1.4500
 406 229.8901 1.4900
 407 229.8901 1.4900
 408 229.8901 1.4900
 409 624.7014 1.3660
 410 229.8901 1.4020
 411 299.8567 1.3820
 412 399.8089 1.4200
 413 449.7850 1.3050
 414 379.8184 1.3790
 415 449.7850 1.3050
 416 369.8232 1.3790
 417 304.8543 1.4140
 418 304.8543 1.4140
 419 399.8089 1.3900
 420 324.8447 1.4100
 421 329.8423 1.4000
 422 679.6751 1.4100
 423 229.8901 1.3820
 424 339.8376 1.3800
 425 334.1403 1.4110
 426 524.7492 1.2600
 427 279.8662 1.3500
 428 279.8662 1.7500
 429 229.8901 1.7800
 430 189.9092 1.7300
 431 349.8328 1.7400
 432 229.8901 1.9030
 433 189.9092 2.1150
 434 414.8017 1.6500
 435 339.8376 1.0800
 436 339.8376 1.0800
 437 419.7993 1.3500
 438 301.8557 1.4030
 439 319.8471 1.4060
 440 304.8543 1.3800
 441 264.8734 1.4800
 442 264.8734 1.4800
 443 299.8567 1.4800
 444 229.8901 1.4780
 445 301.8557 1.3430
 446 339.8376 1.3650
 447 301.8557 1.3430
 448 329.6024 1.3620
 449 314.8495 1.3420
 450 347.8337 1.3490
 451 329.8423 1.3700
 452 349.8328 1.0900
 453 349.8328 1.0900
 454 301.8557 1.3600
 455 409.8041 1.4100
 456 339.8376 1.3830
 457 349.8328 1.3350
 458 301.8557 1.3430
 459 299.8567 1.3910
 460 659.6847 1.2340
 461 234.8877 1.4000
 462 372.8218 1.6550
 463 349.8328 1.8500
 464 359.8280 1.3580
 465 251.8796 1.5020
 466 559.5925 1.3030
 467 439.7898 1.3700
 468 319.8471 1.3700
 469 449.7850 1.3050
 470 399.8089 1.3920
 471 399.8089 1.3420
 472 399.8089 1.3920
 473 299.8567 1.3860
 474 304.8543 1.4140
 475 359.8280 1.3660
 476 389.8137 1.3550
 477 369.8232 1.3700
 478 261.8748 1.7410
 479 379.8184 1.0900
 480 304.8543 1.3700
 481 304.8543 1.3800
 482 299.8567 1.3600
 483 399.8089 1.3580
 484 299.8567 1.4900
 485 299.8567 1.4200
 486 449.7850 1.3100
 487 402.8075 1.4110
 488 359.8280 1.3850
 489 399.8089 1.3800
 490 354.8304 1.0900
 491 359.8280 1.3850
 492 239.8853 1.4900
 493 304.8543 1.5200
 494 309.8519 1.3650
 495 299.8567 1.3750
 496 339.8376 1.3810
 497 359.8280 1.3900
 498 359.8280 1.3790
 499 349.8328 1.3150
 500 244.8829 1.4170
 501 329.8423 1.4000
 502 449.7850 1.3700
 503 329.8423 1.3890
 504 299.8567 1.7600
 505 329.8423 1.5800
 506 229.8901 1.5200
 507 222.3937 1.5000
 508 222.3937 1.5380
 509 222.3937 1.5380
 510 359.8280 1.4150
 511 339.8376 1.4300
 512 339.8376 1.4300
 513 427.7955 1.4200
 514 197.2257 1.8494
 515 189.9092 1.7700
 516 119.9427 1.9540
 517 249.8806 1.5200
 518 249.8806 1.5200
 519 249.8806 1.5200
 520 249.8806 1.5200
 521 264.8734 1.3400
 522 222.3937 1.5000
 523 222.3937 1.5000
 524 222.3937 1.5380
 525 169.9188 1.5200
 526 222.3937 1.5300
 527 222.3937 1.5380
 528 222.3937 1.5280
 529 222.3937 1.5240
 530 319.8471 1.4300
 531 319.8471 1.4300
 532 319.8471 1.4300
 533 262.8743 1.4740
 534 359.8280 1.4150
 535 339.8376 1.4300
 536 339.8376 1.4300
 537 427.7955 1.4200
 538 357.8290 1.3130
 539 359.8280 1.4150
 540 197.9054 1.8180
 541 189.9092 1.7768
 542 139.9331 1.9560
 543 308.8524 1.1110
 544 321.8462 1.1110
 545 197.9054 1.5200
 546 197.9054 1.5200
 547 269.8710 1.8800
 548 269.8710 1.8800
 549 198.1653 1.7917
 550 348.8333 1.3530
 551 345.8347 1.0828
 552 222.3937 1.5380
 553 222.3937 1.5380
 554 222.3937 1.5280
 555 299.8567 1.4530
 556 262.8743 1.4740
 557 214.8973 1.5100
 558 199.9044 1.4900
 559 199.9044 1.4800
 560 197.9054 1.8180
 561 308.8524 1.1110
 562 308.8524 1.1110
 563 222.3937 1.5300
 564 169.9188 1.5200
 565 222.3937 1.5300
 566 222.3937 1.5280
 567 274.8686 1.5000
 568 204.9021 1.5200
 569 222.3937 1.5280
 570 222.3937 1.5240
 571 271.0704 1.4876
 572 292.8600 1.4400
 573 399.8089 1.4580
 574 319.8471 1.4300
 575 265.7530 1.4380
 576 339.8376 1.4510
 577 319.8471 1.4300
 578 321.8462 1.4400
 579 199.9044 1.4500
 580 262.8743 1.4740
 581 262.8743 1.4740
 582 200.1343 1.4284
 583 359.8280 1.4150
 584 319.8471 1.4400
 585 319.8471 1.4400
 586 427.7955 1.4200
 587 449.7850 1.3300
 588 359.8280 1.4150
 589 279.8662 1.4000
 590 269.8710 1.8900
 591 269.8710 1.8900
 592 208.6603 1.8137
 593 213.8978 1.8160
 594 197.9054 1.8180
 595 184.9116 1.8070
 596 184.9116 1.7900
 597 184.9116 1.8100
 598 219.8949 1.7880
 599 159.9236 1.9660
 600 314.8495 1.7000
 601 308.8524 1.1110
 602 169.9188 1.5200
 603 419.7993 1.3740
 604 341.8366 1.0828
 605 189.9092 1.5310
 606 204.9021 1.8360
 607 299.8567 1.1110
 608 299.8567 1.1110
 609 222.3937 1.5280
 610 222.3937 1.5280
 611 225.8920 1.4900
 612 299.8567 1.4530
 613 214.8973 1.5100
 614 199.9044 1.4800
 615 199.9044 1.4900
 616 199.9044 1.4900
 617 284.3641 1.1000
 618 299.8567 1.0800
 619 222.3937 1.5300
 620 222.3937 1.5280
 621 222.3937 1.5280
 622 222.3937 1.5380
 623 309.8519 1.4400
 624 399.8089 1.4580
 625 319.8471 1.4300
 626 399.8089 1.4560
 627 314.8495 1.4340
 628 319.8471 1.4300
 629 265.8729 1.4600
 630 314.8495 1.4420
 631 254.8782 1.4630
 632 254.8782 1.4630
 633 359.8280 1.4150
 634 339.8376 1.4300
 635 339.8376 1.4300
 636 427.7955 1.4200
 637 449.7850 1.3300
 638 248.2813 1.8617
 639 269.8710 1.8900
 640 213.8978 1.8160
 641 239.8853 1.8160
 642 194.9068 1.8370
 643 209.8997 1.7900
 644 239.8853 1.8000
 645 314.8495 1.7000
 646 321.8462 1.1110
 647 249.8806 1.4800
 648 299.8567 1.4530
 649 329.8423 1.4680
 650 214.8973 1.5100
 651 199.9044 1.4800
 652 199.9044 1.4900
 653 199.9044 1.4800
 654 321.8462 1.1110
 655 299.8567 1.0800
 656 234.8877 1.4540
 657 310.8514 1.1110
 658 254.8782 1.4630
 659 313.6501 1.0980
 660 262.8743 1.4740
 661 314.3497 1.0856
 662 239.8853 1.5010
 663 222.3937 1.5240
 664 219.8949 1.4500
 665 339.8376 1.0830
 666 339.8376 1.0830
 667 269.8710 1.5400
 668 244.8829 1.4500
 669 349.8328 1.4223
 670 347.8337 1.0930
 671 194.9068 1.5180
 672 319.8471 1.4340
 673 399.8089 1.4780
 674 427.7955 1.4200
 675 194.9068 1.5180
 676 194.9068 1.5180
 677 222.3937 1.5000
 678 222.3937 1.5240
 679 219.8949 1.4580
 680 219.8949 1.4560
 681 319.8471 1.4340
 682 344.8552 1.4358
 683 359.8280 1.4620
 684 219.8949 1.4560
 685 219.8949 1.4560
 686 262.8743 1.4740
 687 399.8089 1.4780
 688 334.1403 1.4110
 689 339.8376 1.4300
 690 427.7955 1.4200
 691 349.8328 1.4250
 692 200.0944 1.8095
 693 419.7993 1.3740
 694 306.8533 1.1000
 695 341.8366 1.0828
 696 194.9068 1.5300
 697 222.3937 1.5270
 698 222.3937 1.5370
 699 222.3937 1.5240
 700 399.8089 1.4700
 701 369.8232 1.4500
 702 319.8471 1.4550
 703 399.8089 1.4780
 704 349.8328 1.4250
 705 201.1239 1.8248
 706 306.8533 1.1000
 707 222.3937 1.5240
 708 219.8949 1.4560
 709 319.8471 1.4850
 710 319.8471 1.4850
 711 239.8853 1.4460
 712 329.8423 1.0800
 713 209.8997 1.5600
 714 319.8471 1.4600
 715 234.8877 1.4300
 716 319.8471 1.5150
 717 308.8524 1.1110
 718 222.3937 1.5230
 719 219.8949 1.4580
 720 369.8232 1.4500
 721 219.8949 1.4560
 722 249.8806 1.4250
 723 259.8758 1.4200
 724 308.8524 1.1110
 725 695.8774 1.2457
 726 699.6656 1.2550
 727 549.7372 1.3600
 728 582.1817 1.2165
 729 270.8005 1.4215
 730 93.4553 1.8207
 731 454.7826 1.0000
 732 579.7229 1.2250
 733 326.9137 1.3821
 734 454.7826 1.0000
 735 402.8075 1.0150
 736 339.8376 1.2900
 737 359.8280 1.3550
 738 419.7993 1.4110
 739 279.8662 1.3950
 740 269.8710 1.7000
 741 473.7735 1.0100
 742 262.3546 1.3448
 743 76.6234 1.9931
 744 473.7735 1.0100
 745 452.7836 1.0000
 746 469.7754 1.0150
 747 449.7850 1.3650
 748 489.9358 1.0160
 749 473.7735 1.0100
 750 473.7735 1.0100
 751 419.7993 1.3200
 752 366.8846 1.4095
 753 317.8780 1.4032
 754 439.7898 0.9970
 755 479.7707 1.0000
 756 237.6564 1.7096
 757 179.9140 1.7920
 758 223.8930 1.7000
 759 432.2934 1.0250
 760 487.7668 1.0000
 761 214.8973 1.6300
 762 234.8877 1.6500
 763 441.7888 1.0210
 764 447.5860 1.0190
 765 280.7958 1.4471
 766 239.8853 1.6800
 767 453.7831 1.0200
 768 452.8835 1.0140
 769 455.2824 1.0140
 770 269.8710 1.4400
 771 313.0704 1.3754
 772 215.5969 1.4528
 773 449.7850 1.0180
 774 354.8304 1.4000
 775 436.7912 1.0100
 776 244.8829 1.4000
 777 309.8519 1.4000
 778 402.8075 1.0400
 779 459.7802 1.0060
 780 402.8075 1.0400
 781 309.8519 1.3500
 782 579.7229 1.4800
 783 499.7611 1.5100
 784 399.8089 1.5200
 785 539.7420 1.4480
 786 629.6990 1.4400
 787 539.7420 1.5300
 788 577.7238 1.4770
 789 166.7203 1.5130
 790 234.9177 1.6857
 791 229.8901 1.6100
 792 189.9092 1.6500
 793 149.9283 1.6550
 794 249.8806 1.5750
 795 234.8877 1.6000
 796 329.8423 1.6750
 797 329.8423 1.6750
 798 299.8567 1.7150
 799 236.8868 1.5800
 800 236.8868 1.6100
 801 236.8868 1.6100
 802 253.4588 1.7016
 803 244.8829 1.4500
 804 544.7396 0.9600
 805 308.9323 1.6221
 806 349.8328 1.4350
 807 260.2756 1.9953
 808 260.2756 1.9953
 809 260.2756 1.9953
 810 258.7763 1.9953
 811 172.9173 2.0290
 812 195.9263 2.0694
 813 102.2311 2.1784
 814 274.8686 1.3250
 815 204.9021 1.7260
 816 699.6656 1.2150
 817 329.8423 1.5000
 818 329.8423 1.5000
 819 329.8423 1.5000
 820 699.6656 1.2150
 821 329.8423 1.1100
 822 249.8806 1.5000
 823 249.8806 1.5000
 824 222.3937 1.5000
 825 222.3937 1.4850
 826 222.3937 1.5000
 827 222.3937 1.5000
 828 222.3937 1.4850
 829 222.3937 1.5380
 830 222.3937 1.5380
 831 222.3937 1.5380
 832 222.3937 1.5380
 833 222.3937 1.4800
 834 222.3937 1.4800
 835 222.3937 1.4800
 836 222.3937 1.5150
 837 222.3937 1.4900
 838 222.3937 1.4900
 839 199.9044 1.5220
 840 199.9044 1.5220
 841 199.9044 1.4800
 842 199.9044 1.4800
 843 249.8806 1.5200
 844 222.3937 1.5280
 845 222.3937 1.5300
 846 222.3937 1.5300
 847 222.3937 1.5300
 848 222.3937 1.5380
 849 222.3937 1.4900
 850 222.3937 1.5380
 851 222.3937 1.5380
 852 199.9044 1.5220
 853 409.8041 1.4100
 854 427.7955 1.4000
 855 427.7955 1.4000
 856 427.7955 1.4200
 857 427.7955 1.4200
 858 399.8089 1.4200
 859 427.7955 1.4200
 860 427.7955 1.4200
 861 427.7955 1.4200
 862 427.7955 1.4200
 863 399.8089 1.4200
 864 619.7038 1.2300
 865 524.7492 1.2600
 866 359.8280 1.4150
 867 359.8280 1.4150
 868 359.8280 1.4150
 869 359.8280 1.4150
 870 359.8280 1.3950
 871 359.8280 1.3950
 872 359.8280 1.3950
 873 359.8280 1.4150
 874 359.8280 1.4150
 875 359.8280 1.4350
 876 359.8280 1.4150
 877 359.8280 1.4150
 878 359.8280 1.4150
 879 359.8280 1.4250
 880 359.8280 1.4250
 881 359.8280 1.4150
 882 359.8280 1.4150
 883 359.8280 1.4250
 884 359.8280 1.4250
 885 319.8471 1.4300
 886 319.8471 1.4300
 887 319.8471 1.4300
 888 369.8232 1.3450
 889 308.8524 1.1110
 890 308.8524 1.1110
 891 308.8524 1.1110
 892 308.8524 1.1110
 893 308.8524 1.1110
 894 308.8524 1.1110
 895 308.8524 1.1110
 896 308.8524 1.1110
 897 308.8524 1.1110
 898 308.8524 1.1110
 899 321.8462 1.1110
 900 308.8524 1.1110
 901 308.8524 1.1110
 902 308.8524 1.1110
 903 544.7396 0.9600
 904 544.7396 0.9600
 905 544.7396 0.9600
 906 439.7898 0.9970
 907 349.8328 1.4250
 908 194.9068 1.5180
 909 306.8533 1.1000
 910 222.3937 1.5280
 911 349.8328 1.4250
 912 194.9068 1.5180
 913 306.8533 1.1000
 914 359.8280 1.3950
 915 349.8328 1.4250
 916 349.8328 1.4250
 917 349.8328 1.4250
 918 427.7955 1.3950
 919 427.7955 1.3950
 920 409.8041 1.3950
 921 308.8524 1.1110
 922 306.8533 1.1000
 923 308.8524 1.1110
 924 308.8524 1.1110
 925 194.9068 1.5080
 926 194.9068 1.5080
 927 194.9068 1.5080
 928 194.9068 1.5080
 929 194.9068 1.5080
 930 194.9068 1.5080
 931 194.9068 1.5080
 932 222.3937 1.4900
 933 222.3937 1.4900
 934 359.8280 1.3950
 935 222.3937 1.5380
 936 222.3937 1.5380
 937 359.8280 1.4250
 938 359.8280 1.4250
 939 359.8280 1.4250
 940 359.8280 1.4520
 941 269.8710 1.6750
 942 579.7229 1.5250
 943 236.8868 1.6100
 944 544.7396 0.9600
 945 539.7420 1.4480
 946 249.8806 1.6100
 947 359.8280 1.3950
 948 349.8328 1.4250
 949 194.9068 1.5180
 950 306.8533 1.1000
 951 359.8280 1.4250
 952 306.8533 1.1000
 953 222.3937 1.5000
 954 359.8280 1.4150
 955 359.8280 1.4250
 956 359.8280 1.3950
 957 359.8280 1.4250
 958 359.8280 1.3950
 959 359.8280 1.4250
 960 359.8280 1.3950
 961 399.8089 1.4200
 962 399.8089 1.4200
 963 149.9283 1.3340
 964 199.9044 1.5220
 965 749.6417 1.2200
 966 184.9116 1.7000
 967 269.8710 1.4550
 968 431.7936 1.0300
 969 199.9044 1.4800
 970 402.8075 1.0400
 971 259.8758 1.4200
 972 222.3937 1.5280
 973 301.8557 1.4090
 974 301.8557 1.4030
 975 301.8557 1.3600
 976 379.8184 1.3670
 977 301.8557 1.3480
 978 339.8376 1.3960
 979 339.8376 1.3890
 980 339.8376 1.3830
 981 349.8328 1.3350
 982 859.5891 1.2300
 983 659.6847 1.2340
 984 619.7038 1.2450
 985 319.8471 1.4060
 986 359.8280 1.3580
 987 359.8280 1.3660
 988 399.8089 1.3920
 989 449.7850 1.3430
 990 399.8089 1.3420
 991 319.8471 1.3260
 992 499.7611 1.3260
 993 559.7324 1.3200
 994 229.8901 1.4780
 995 349.8328 1.0900
 996 349.8328 1.0900
 997 301.8557 1.3430
 998 319.8471 1.3430
 999 379.8184 1.0900
 1000 319.8471 1.3740
 1001 299.8567 1.3780
 1002 419.7993 1.3220
 1003 399.8089 1.3050
 1004 309.8519 1.3610
 1005 319.8471 1.3500
 1006 299.8567 1.3750
 1007 301.8557 1.3750
 1008 349.8328 1.3120
 1009 349.8328 1.3150
 1010 309.8519 1.3550
 1011 309.8519 1.3650
 1012 222.3937 1.5280
 1013 222.3937 1.5280
 1014 399.8089 1.4600
 1015 427.7955 1.4200
 1016 321.8462 1.1110
 1017 339.8376 1.4300
 1018 487.7668 1.0000
 1019 473.7735 1.0100
 1020 473.7735 1.0100
 1021 470.7750 1.0100
 1022 473.7735 1.0100
 1023 544.7396 0.9600
 1024 269.8710 1.6000
 1025 269.8710 1.6000
 1026 579.7229 1.4800
 1027 579.7229 1.4800
 1028 236.8868 1.5800
 1029 236.8868 1.5800
 1030 259.8758 1.4200
 1031 199.9044 1.5180
 1032 239.8853 1.4460
 1033 222.3937 1.5290
 1034 222.3937 1.5160
 1035 222.3937 1.5160
 1036 308.8524 1.1110
 1037 308.8524 1.1110
 1038 308.8524 1.1110
 1039 259.8758 1.4200
 1040 239.8853 1.4800
 1041 199.9044 1.4500
 1042 222.3937 1.4600
 1043 222.3937 1.5120
 1044 319.8471 1.4400
 1045 427.7955 1.4200
 1046 309.8519 1.4330
 1047 309.8519 1.4330
 1048 427.7955 1.4200
 1049 399.8089 1.4560
 1050 399.8089 1.4580
 1051 399.8089 1.4580
 1052 219.8949 1.4560
 1053 219.8949 1.4580
 1054 308.8524 1.1110
 1055 544.7396 0.9600
 1056 427.7955 1.4000
 1057 339.8376 1.4400
 1058 299.8567 1.6800
 1059 479.7707 1.5300
 1060 299.8567 1.6800
 1061 479.7707 1.5300
 1062 236.8868 1.5800
 1063 199.9044 1.5220
 1064 199.9044 1.5220
 1065 199.9044 1.5220
 1066 199.9044 1.5220
 1067 749.6417 1.2200
 1068 524.7492 1.2600
 1069 524.7492 1.2600
 1070 149.9283 1.3340
 1071 149.9283 1.3340
 1072 229.8901 1.4000
 1073 544.7396 0.9600
 1074 308.8524 1.1110
 1075 329.8423 1.0800
 1076 308.8524 1.1110
 1077 321.8462 1.1110
 1078 339.8376 1.4300
 1079 339.8376 1.4300
 1080 339.8376 1.4300
 1081 339.8376 1.4300
 1082 339.8376 1.4300
 1083 339.8376 1.4300
 1084 269.8710 1.6000
 1085 269.8710 1.6000
 1086 579.7229 1.4800
 1087 236.8868 1.5900
 1088 409.8041 1.0400
 1089 199.9044 1.4800
 1090 260.8753 1.5100
 1091 214.8973 1.5100
 1092 214.8973 1.5100
 1093 299.8567 1.0800
 1094 299.8567 1.0800
 1095 222.3937 1.5000
 1096 222.3937 1.5380
 1097 222.3937 1.5380
 1098 222.3937 1.5300
 1099 222.3937 1.5280
 1100 222.3937 1.5300
 1101 427.7955 1.4200
 1102 427.7955 1.4200
 1103 427.7955 1.4200
 1104 539.7420 1.4480
 1105 249.8806 1.5750
 1106 509.7563 1.3300
 1107 364.8256 1.1000
 1108 382.8170 1.5040
 1109 499.7611 1.3420
 1110 360.3278 1.1000
 1111 364.8256 1.5020
 1112 439.7898 1.3400
 1113 308.8524 1.1110
 1114 308.8524 1.1110
 1115 321.8462 1.1110
 1116 222.3937 1.5380
 1117 222.3937 1.5380
 1118 222.3937 1.5000
 1119 222.3937 1.5380
 1120 222.3937 1.5380
 1121 222.3937 1.5300
 1122 222.3937 1.5280
 1123 222.3937 1.5300
 1124 194.9068 1.5480
 1125 306.8533 1.1160
 1126 349.8328 1.4250
 1127 194.9068 1.5180
 1128 306.8533 1.1000
 1129 222.3937 1.5280
 1130 359.8280 1.4150
 1131 359.8280 1.4150
 1132 308.8524 1.1110
 1133 222.3937 1.5300
 1134 359.8280 1.4150
 1135 301.8557 1.6980
 1136 301.8557 1.6980
 1137 301.8557 1.6980
 1138 324.8447 1.6800
 1139 301.8557 2.0000
 1140 303.8548 1.6820
 1141 565.7296 0.9750
 1142 565.7296 0.9600
 1143 449.7850 0.9572
 1144 203.9025 1.4890
 1145 203.9025 1.4890
 1146 303.8548 1.6820
 1147 0.0000 1.5139
 1148 449.7850 0.9572
 1149 937.5119 1.1600
 1150 249.8806 2.3200
 1151 599.7133 1.3350
 1152 449.7850 1.3800
 1153 299.6568 1.4432
 1154 340.5372 1.3464
 1155 359.8280 1.3716
 1156 229.8901 1.4900
 1157 229.8901 1.4900
 1158 257.8767 1.9000
 1159 0.0000 3.3814
 1160 339.8376 1.0830
 1161 316.9785 1.1000
 1162 308.8524 1.1110
 1163 308.8524 1.1110
 1164 367.4244 1.0900
 1165 299.8567 1.1110
 1166 308.8524 1.1110
 1167 308.8524 1.1110
 1168 321.8462 1.1110
 1169 329.8423 1.0800
 1170 329.8423 1.0800
 1171 329.8423 1.0800
 1172 329.8423 1.0800
 1173 329.8423 1.0800
 1174 377.0198 1.3757
 1175 270.0709 1.9580
 1176 64.9689 2.2000
 1177 1114.4673 1.1280
 1178 249.8806 1.8000
 1179 599.7133 1.2300
 1180 544.7396 0.9700
 1181 520.7511 0.9630
 1182 285.3636 1.4420
 1183 249.8806 2.0000
 1184 239.8853 1.5020
 1185 222.3937 1.5000
 1186 222.3937 1.5000
 1187 222.3937 1.5380
 1188 222.3937 1.5380
 1189 222.3937 1.5380
 1190 222.3937 1.5300
 1191 222.3937 1.5300
 1192 308.8524 1.1110
 1193 308.8524 1.1110
 1194 427.7955 1.4200
 1195 222.3937 1.5380
 1196 364.8256 1.5020
 1197 239.8853 1.5020
 1198 339.8376 1.4300
 1199 222.3937 1.5300
 1200 222.3937 1.5380
 1201 239.8853 1.5010
 1202 239.8853 1.5010
 1203 149.9283 1.3340
 1204 339.8376 1.3800
 1205 269.8710 1.6100
 1206 269.8710 1.8900
 1207 197.9054 1.4500
 1208 269.8710 1.8800
 1209 309.8519 1.4330
 1210 319.8471 1.4400
 1211 239.8853 1.8160
 1212 197.9054 1.8160
 1213 197.9054 1.8160
 1214 239.8853 1.8160
 1215 219.8949 1.4620
 1216 197.9054 1.8180
 1217 319.8471 1.4300
 1218 319.8471 1.4300
 1219 222.3937 1.5380
 1220 199.9044 1.5220
 1221 359.8280 1.4250
 1222 359.8280 1.4250
 1223 269.8710 1.6750
 1224 579.7229 1.5250
 1225 236.8868 1.6100
 1226 359.8280 1.4150
 1227 359.8280 1.4250
 1228 359.8280 1.4150
 1229 359.8280 1.4150
 1230 222.3937 1.5380
 1231 369.8232 1.3450
 1232 319.8471 1.4300
 1233 319.8471 1.4300
 1234 319.8471 1.4300
 1235 359.8280 1.4150
 1236 222.3937 1.5380
 1237 19.9904 2.3200
 1238 19.9904 2.0700
 1239 249.8806 1.4900
 1240 222.3937 1.5380
 1241 319.8471 1.4300
 1242 222.3937 1.5380
 1243 239.8853 1.4550
 1244 199.9044 1.5220
 1245 199.9044 1.5220
 1246 199.9044 1.4800
 1247 314.8495 1.4340
 1248 399.8089 1.4580
 1249 229.5203 1.5000
 1250 427.7955 1.4300
 1251 308.8524 1.1110
 1252 399.8089 1.4580
 1253 399.8089 1.4580
 1254 409.8041 1.4650
 1255 261.8748 1.7410
 1256 447.5860 1.0190
 1257 369.8232 1.3700
 1258 229.5203 1.5000
 1259 254.8782 1.4630
 1260 254.8782 1.4630
 1261 369.8232 1.3450
 1262 229.5203 1.5000
 1263 229.8901 1.4900
 1264 222.3937 1.5000
 1265 429.7946 1.3500
 1266 369.8232 1.3450
 1267 364.8256 1.5020
 1268 424.7969 1.5000
 1269 222.3937 1.5000
 1270 222.3937 1.5380
 1271 169.9188 1.5200
 1272 222.3937 1.5300
 1273 222.3937 1.5380
 1274 222.3937 1.5280
 1275 339.4677 1.4304
 1276 229.5203 1.5000
 1277 229.8901 1.4900
 1278 222.3937 1.5000
 1279 222.3937 1.5380
 1280 169.9188 1.5200
 1281 222.3937 1.5300
 1282 259.8758 1.3000
 1283 349.8328 1.3650
 1284 449.7850 1.2950
 1285 349.8328 1.3320
 1286 259.8758 1.4050
 1287 559.7324 1.3350
 1288 229.8901 1.4800
 1289 479.7707 1.3100
 1290 449.7850 1.3300
 1291 399.8089 1.3830
 1292 399.8089 1.3890
 1293 554.7348 1.3430
 1294 487.7668 1.0000
 1295 473.7735 1.0100
 1296 399.8089 1.3400
 1297 304.8543 1.3750
 1298 229.8901 1.4900
 1299 229.8901 1.4900
 1300 229.8901 1.4900
 1301 339.8376 1.0800
 1302 304.8543 1.3700
 1303 339.8376 1.0800
 1304 399.8089 1.3580
 1305 364.8256 1.4750
 1306 364.8256 1.1000
 1307 499.7611 1.3420
 1308 360.3278 1.1000
 1309 429.7946 1.4500
 1310 299.8567 1.3780
 1311 304.8543 1.4140
 1312 260.8753 1.4900
 1313 462.7788 1.3650
 1314 454.7826 1.0000
 1315 359.8280 1.4620
 1316 179.9140 1.7920
 1317 432.2934 1.0250
 1318 359.8280 1.4620
 1319 544.7396 0.9600
 1320 544.7396 0.9600
 1321 429.7946 1.3500
 1322 399.8089 1.4580
 1323 399.8089 1.4580
 1324 329.8423 1.0800
 1325 222.3937 1.5300
 1326 319.8471 1.4340
 1327 319.8471 1.4340
 1328 334.1403 1.4110
 1329 359.8280 1.4150
 1330 399.8089 1.5000
 1331 222.3937 1.5380
 1332 222.3937 1.5160
 1333 222.3937 1.5320
 1334 308.8524 1.1110
 1335 308.8524 1.1050
 1336 399.8089 1.5350
 1337 399.8089 1.5000
 1338 222.3937 1.5120
 1339 222.3937 1.5100
 1340 219.8949 1.4560
 1341 219.8949 1.4560
 1342 219.8949 1.4580
 1343 219.8949 1.4580
 1344 319.8471 1.4350
 1345 339.8376 1.3830
 1346 399.8089 1.4600
 1347 399.8089 1.4600
 1348 339.8376 1.3830
 1349 249.8806 1.4900
 1350 199.9044 1.5220
 1351 199.9044 1.5220
 1352 222.3937 1.5000
 1353 222.3937 1.5380
 1354 222.3937 1.5380
 1355 222.3937 1.5380
 1356 308.8524 1.1110
 1357 329.8423 1.0800
 1358 319.8471 1.4300
 1359 199.9044 1.4800
 1360 427.7955 1.4200
 1361 249.8806 1.4900
 1362 222.3937 1.5270
 1363 329.8423 1.0800
 1364 319.8471 1.4340
 1365 360.3278 1.1000
 1366 360.3278 1.1000
 1367 364.8256 1.1000
 1368 439.7898 1.3400
 1369 439.7898 1.3400
 1370 499.7611 1.3420
 1371 499.7611 1.3420
 1372 299.8567 1.4700
 1373 382.8170 1.5040
 1374 364.8256 1.5020
 1375 364.8256 1.5020
 1376 382.8170 1.5040
 1377 222.3937 1.5380
 1378 304.8543 1.4140
 1379 299.8567 1.4798
 1380 439.7898 1.4890
 1381 439.7898 1.4890
 1382 309.8519 1.4400
 1383 499.7611 1.2760
 1384 360.3278 1.1000
 1385 299.8567 1.4530
 1386 469.7754 1.2830
 1387 454.7826 1.0000
 1388 309.8519 1.4400
 1389 299.8567 1.4530
 1390 359.8280 1.4150
 1391 399.8089 1.4560
 1392 399.8089 1.4560
 1393 334.1403 1.4110
 1394 334.1403 1.4110
 1395 219.8949 1.4570
 1396 219.8949 1.4570
 1397 349.8328 1.4860
 1398 319.8471 1.4340
 1399 319.8471 1.4600
 1400 242.8839 1.4530
 1401 184.9116 1.8070
 1402 309.8519 1.4000
 1403 244.8829 1.4000
 1404 319.8471 1.4300
 1405 222.3937 1.5000
 1406 197.9054 1.8180
 1407 199.9044 1.5220
 1408 229.8901 1.4900
 1409 339.8376 1.4300
 1410 239.8853 1.8160
 1411 197.9054 1.8180
 1412 222.3937 1.5380
 1413 249.8806 1.4900
 1414 249.8806 1.4900
 1415 222.3937 1.5000
 1416 222.3937 1.5380
 1417 364.8256 1.5020
 1418 439.7898 1.3400
 1419 249.8806 1.4900
 1420 249.8806 1.4900
 1421 427.7955 1.4200
 1422 339.8376 1.4300
 1423 308.8524 1.1110
 1424 360.3278 1.1000
 1425 439.7898 0.9970
 1426 319.8471 1.4300
 1427 369.8232 1.3450
 1428 319.8471 1.4300
 1429 308.8524 1.1110
 1430 222.3937 1.5380
 1431 427.7955 1.4200
 1432 382.8170 1.5040
 1433 249.8806 1.4900
 1434 373.8213 1.0900
 1435 349.8328 1.0900
 1436 301.8557 1.4800
 1437 559.7324 1.3600
 1438 859.5891 1.2300
 1439 449.7850 1.3600
 1440 419.7993 1.3500
 1441 419.7993 1.3200
 1442 222.3937 1.4900
 1443 349.8328 1.0900
 1444 349.8328 1.0900
 1445 349.8328 1.0900
 1446 373.8213 1.0900
 1447 419.7993 1.3150
 1448 419.7993 1.3550
 1449 314.3497 1.2940
 1450 239.8853 1.5010
 1451 339.8376 1.0830
 1452 749.6417 1.2200
 1453 170.7684 1.7747

 Angle Coeffs #charmm

 1 49.97611 111.00000 0.00000 0.00000
 2 49.97611 111.00000 0.00000 0.00000
 3 67.66765 110.00000 0.00000 0.00000
 4 67.66765 110.00000 0.00000 0.00000
 5 67.66765 110.00000 0.00000 0.00000
 6 67.66765 110.00000 0.00000 0.00000
 7 54.97372 110.50000 0.00000 0.00000
 8 51.97516 108.00000 0.00000 0.00000
 9 37.98184 109.50000 49.97611 2.14000
 10 49.97611 107.00000 0.00000 0.00000
 11 49.97611 107.00000 0.00000 0.00000
 12 49.97611 107.00000 0.00000 0.00000
 13 35.98280 115.00000 0.00000 0.00000
 14 49.97611 109.50000 0.00000 0.00000
 15 47.97707 108.00000 0.00000 0.00000
 16 39.98089 120.00000 34.98328 2.41620
 17 39.98089 120.00000 34.98328 2.41620
 18 49.97611 113.20000 0.00000 0.00000
 19 49.97611 110.00000 0.00000 0.00000
 20 49.97611 113.20000 0.00000 0.00000
 21 49.97611 110.00000 0.00000 0.00000
 22 84.95939 106.40000 24.98806 2.26100
 23 84.95939 112.00000 0.00000 0.00000
 24 29.98567 127.00000 0.00000 0.00000
 25 29.98567 126.70000 0.00000 0.00000
 26 29.98567 127.00000 0.00000 0.00000
 27 29.98567 126.70000 0.00000 0.00000
 28 129.93789 133.50000 0.00000 0.00000
 29 129.93789 133.50000 0.00000 0.00000
 30 84.95939 108.00000 0.00000 0.00000
 31 58.32212 114.00000 0.00000 0.00000
 32 58.32212 114.00000 0.00000 0.00000
 33 27.98662 126.00000 0.00000 0.00000
 34 27.98662 126.00000 0.00000 0.00000
 35 27.98662 126.00000 0.00000 0.00000
 36 54.97372 109.50000 0.00000 0.00000
 37 54.97372 109.50000 0.00000 0.00000
 38 29.98567 120.00000 21.98949 2.15250
 39 29.98567 120.00000 21.98949 2.15250
 40 29.98567 122.00000 21.98949 2.14600
 41 29.98567 122.00000 21.98949 2.14600
 42 31.98471 125.00000 24.98806 2.17300
 43 31.98471 126.40000 24.98806 2.18600
 44 31.98471 126.40000 24.98806 2.25500
 45 84.95939 110.50000 24.98806 2.24000
 46 31.98471 125.00000 24.98806 2.17700
 47 129.93789 129.50000 0.00000 0.00000
 48 129.93789 129.50000 0.00000 0.00000
 49 94.95461 107.40000 0.00000 0.00000
 50 39.98089 120.00000 34.98328 2.41620
 51 47.97707 123.50000 0.00000 0.00000
 52 47.97707 123.50000 0.00000 0.00000
 53 31.98471 112.20000 0.00000 0.00000
 54 47.97707 126.00000 0.00000 0.00000
 55 46.97754 125.20000 0.00000 0.00000
 56 59.97133 117.00000 0.00000 0.00000
 57 51.97516 112.30000 0.00000 0.00000
 58 51.97516 112.30000 0.00000 0.00000
 59 49.97611 112.30000 0.00000 0.00000
 60 69.96656 108.50000 0.00000 0.00000
 61 69.96656 108.50000 0.00000 0.00000
 62 59.97133 117.00000 0.00000 0.00000
 63 99.95222 114.20000 0.00000 0.00000
 64 99.95222 111.00000 0.00000 0.00000
 65 129.93789 107.50000 0.00000 0.00000
 66 129.93789 104.00000 0.00000 0.00000
 67 144.93072 108.00000 0.00000 0.00000
 68 51.97516 108.00000 0.00000 0.00000
 69 51.97516 108.00000 0.00000 0.00000
 70 51.97516 108.00000 0.00000 0.00000
 71 53.32451 111.00000 7.99618 2.56100
 72 51.77525 107.50000 0.00000 0.00000
 73 51.97516 108.00000 0.00000 0.00000
 74 51.97516 108.00000 0.00000 0.00000
 75 58.32212 113.00000 0.00000 0.00000
 76 58.32212 113.50000 11.15467 2.56100
 77 49.97611 120.00000 0.00000 0.00000
 78 45.77812 122.30000 0.00000 0.00000
 79 45.77812 130.00000 0.00000 0.00000
 80 51.97516 108.00000 0.00000 0.00000
 81 51.97516 108.00000 0.00000 0.00000
 82 51.97516 108.00000 0.00000 0.00000
 83 51.97516 108.00000 0.00000 0.00000
 84 53.32451 111.00000 7.99618 2.56100
 85 51.97516 108.00000 0.00000 0.00000
 86 51.97516 108.00000 0.00000 0.00000
 87 51.97516 108.00000 0.00000 0.00000
 88 51.97516 108.00000 0.00000 0.00000
 89 51.97516 108.00000 0.00000 0.00000
 90 58.32212 113.50000 11.15467 2.56100
 91 58.32212 113.60000 11.15467 2.56100
 92 58.32212 113.50000 11.15467 2.56100
 93 62.27023 120.00000 0.00000 0.00000
 94 49.97611 120.00000 0.00000 0.00000
 95 39.98089 109.60000 29.98567 2.26510
 96 45.77812 122.30000 0.00000 0.00000
 97 45.77812 130.00000 0.00000 0.00000
 98 51.97516 108.00000 0.00000 0.00000
 99 51.97516 108.00000 0.00000 0.00000
 100 53.32451 108.50000 7.99618 2.56100
 101 53.32451 114.00000 7.99618 2.56100
 102 53.32451 114.00000 7.99618 2.56100
 103 51.77525 107.50000 0.00000 0.00000
 104 58.32212 113.00000 0.00000 0.00000
 105 58.32212 113.50000 11.15467 2.56100
 106 57.97229 115.00000 7.99618 2.56100
 107 53.32451 114.00000 7.99618 2.56100
 108 62.27023 120.00000 0.00000 0.00000
 109 49.97611 120.00000 0.00000 0.00000
 110 39.98089 109.60000 29.98567 2.26510
 111 33.98376 95.00000 0.00000 0.00000
 112 33.98376 123.00000 0.00000 0.00000
 113 34.98328 117.00000 0.00000 0.00000
 114 34.98328 117.00000 0.00000 0.00000
 115 34.98328 117.00000 0.00000 0.00000
 116 49.97611 120.00000 0.00000 0.00000
 117 22.98901 120.00000 0.00000 0.00000
 118 29.98567 125.50000 19.99044 2.15000
 119 29.98567 127.00000 19.99044 2.14000
 120 24.98806 126.00000 14.99283 2.13000
 121 24.98806 126.00000 14.99283 2.09000
 122 64.96894 108.00000 0.00000 0.00000
 123 54.97372 115.00000 0.00000 0.00000
 124 57.47253 106.00000 0.00000 0.00000
 125 57.47253 106.00000 0.00000 0.00000
 126 57.47253 106.00000 0.00000 0.00000
 127 33.41403 110.10000 22.51923 2.17900
 128 26.48734 110.10000 22.51923 2.17900
 129 26.48734 110.10000 22.51923 2.17900
 130 35.48304 109.00000 5.39742 1.80200
 131 26.48734 110.10000 22.51923 2.17900
 132 35.48304 109.00000 5.39742 1.80200
 133 34.58347 110.10000 22.51923 2.17900
 134 35.48304 108.40000 13.99331 1.77500
 135 35.48304 108.40000 13.99331 1.77500
 136 32.98423 109.50000 29.98567 2.16300
 137 32.98423 109.50000 29.98567 2.16300
 138 34.48352 110.10000 22.51923 2.17900
 139 34.48352 110.10000 22.51923 2.17900
 140 34.48352 110.10000 22.51923 2.17900
 141 35.48304 109.00000 5.39742 1.80200
 142 32.98423 109.50000 29.98567 2.16300
 143 49.27645 107.50000 0.00000 0.00000
 144 32.98423 109.50000 29.98567 2.16300
 145 32.98423 109.50000 29.98567 2.16300
 146 44.97850 111.50000 0.00000 0.00000
 147 33.41403 109.50000 0.00000 0.00000
 148 26.48734 110.10000 22.51923 2.17900
 149 26.48734 110.10000 22.51923 2.17900
 150 34.58347 110.10000 22.51923 2.17900
 151 35.48304 109.00000 5.39742 1.80200
 152 32.98423 109.50000 29.98567 2.16300
 153 49.27645 107.50000 0.00000 0.00000
 154 32.98423 109.50000 29.98567 2.16300
 155 32.98423 109.50000 29.98567 2.16300
 156 41.97993 111.50000 0.00000 0.00000
 157 33.41403 109.50000 0.00000 0.00000
 158 34.58347 110.10000 22.51923 2.17900
 159 33.41403 110.10000 22.51923 2.17900
 160 34.58347 110.10000 22.51923 2.17900
 161 37.48208 110.10000 22.51923 2.17900
 162 35.48304 108.40000 5.39742 1.80200
 163 51.97516 119.50000 0.00000 0.00000
 164 41.97993 118.00000 0.00000 0.00000
 165 39.98089 116.00000 0.00000 0.00000
 166 21.98949 117.00000 0.00000 0.00000
 167 44.97850 120.50000 0.00000 0.00000
 168 55.47348 120.50000 0.00000 0.00000
 169 18.99092 119.00000 0.00000 0.00000
 170 49.97611 112.00000 0.00000 0.00000
 171 49.97611 112.00000 0.00000 0.00000
 172 49.97611 112.00000 0.00000 0.00000
 173 34.98328 118.00000 0.00000 0.00000
 174 49.97611 109.50000 0.00000 0.00000
 175 49.97611 109.50000 0.00000 0.00000
 176 49.97611 109.50000 0.00000 0.00000
 177 34.98328 111.00000 0.00000 0.00000
 178 34.98328 111.00000 0.00000 0.00000
 179 34.98328 111.00000 0.00000 0.00000
 180 49.97611 109.50000 0.00000 0.00000
 181 49.97611 109.50000 0.00000 0.00000
 182 49.97611 109.50000 0.00000 0.00000
 183 35.98280 115.00000 0.00000 0.00000
 184 48.97659 120.00000 0.00000 0.00000
 185 40.38070 120.00000 0.00000 0.00000
 186 40.38070 120.00000 0.00000 0.00000
 187 24.98806 120.00000 0.00000 0.00000
 188 49.97611 111.00000 0.00000 0.00000
 189 49.97611 111.00000 0.00000 0.00000
 190 38.98137 106.50000 0.00000 0.00000
 191 29.98567 109.50000 19.99044 2.07400
 192 29.98567 109.50000 19.99044 2.07400
 193 29.98567 109.50000 19.99044 2.07400
 194 43.97898 109.50000 0.00000 0.00000
 195 32.98423 109.50000 3.99809 2.05600
 196 32.98423 109.50000 3.99809 2.05600
 197 50.97563 107.50000 0.00000 0.00000
 198 29.98567 120.00000 21.98949 2.15250
 199 21.98949 130.00000 14.99283 2.21500
 200 24.98806 130.00000 19.99044 2.20000
 201 38.78146 95.00000 0.00000 0.00000
 202 42.97946 95.00000 0.00000 0.00000
 203 19.99044 112.50000 0.00000 0.00000
 204 19.99044 112.50000 0.00000 0.00000
 205 19.99044 112.50000 0.00000 0.00000
 206 19.99044 112.50000 0.00000 0.00000
 207 49.97611 108.20000 0.00000 0.00000
 208 49.97611 108.20000 0.00000 0.00000
 209 49.97611 108.20000 0.00000 0.00000
 210 69.96656 110.80000 0.00000 0.00000
 211 47.97707 112.00000 0.00000 0.00000
 212 69.96656 110.50000 0.00000 0.00000
 213 47.97707 108.00000 0.00000 0.00000
 214 39.98089 120.00000 69.96656 2.31000
 215 67.66765 107.50000 0.00000 0.00000
 216 56.47301 107.50000 0.00000 0.00000
 217 56.47301 107.50000 0.00000 0.00000
 218 79.96178 116.50000 0.00000 0.00000
 219 79.96178 116.50000 0.00000 0.00000
 220 79.96178 116.50000 0.00000 0.00000
 221 79.96178 116.50000 0.00000 0.00000
 222 49.97611 107.00000 0.00000 0.00000
 223 49.97611 107.00000 0.00000 0.00000
 224 49.97611 107.00000 0.00000 0.00000
 225 69.96656 113.50000 0.00000 0.00000
 226 69.96656 113.50000 0.00000 0.00000
 227 69.96656 113.50000 0.00000 0.00000
 228 47.97707 108.00000 0.00000 0.00000
 229 49.97611 107.00000 0.00000 0.00000
 230 49.97611 107.00000 0.00000 0.00000
 231 49.97611 107.00000 0.00000 0.00000
 232 69.96656 113.50000 0.00000 0.00000
 233 51.47539 109.50000 0.00000 0.00000
 234 47.97707 108.00000 0.00000 0.00000
 235 51.47539 109.50000 0.00000 0.00000
 236 79.96178 112.50000 0.00000 0.00000
 237 49.97611 116.50000 49.97611 2.45000
 238 49.97611 116.50000 49.97611 2.45000
 239 49.97611 116.50000 49.97611 2.45000
 240 43.97898 111.00000 49.97611 1.98000
 241 37.98184 109.50000 49.97611 2.14000
 242 51.97516 108.00000 0.00000 0.00000
 243 67.66765 110.00000 0.00000 0.00000
 244 37.98184 109.50000 49.97611 2.14000
 245 37.98184 109.50000 49.97611 2.14000
 246 43.67912 110.00000 0.00000 0.00000
 247 43.67912 110.00000 0.00000 0.00000
 248 67.66765 110.00000 0.00000 0.00000
 249 67.66765 110.00000 0.00000 0.00000
 250 67.66765 110.00000 0.00000 0.00000
 251 51.47539 107.50000 0.00000 0.00000
 252 43.67912 110.00000 0.00000 0.00000
 253 43.67912 110.00000 0.00000 0.00000
 254 43.67912 110.00000 0.00000 0.00000
 255 67.66765 110.00000 0.00000 0.00000
 256 67.66765 110.00000 0.00000 0.00000
 257 44.97850 107.50000 34.98328 2.10100
 258 51.47539 107.50000 0.00000 0.00000
 259 44.97850 107.50000 34.98328 2.10100
 260 49.97611 106.00000 0.00000 0.00000
 261 49.97611 106.00000 0.00000 0.00000
 262 49.97611 106.00000 0.00000 0.00000
 263 69.96656 108.50000 0.00000 0.00000
 264 51.47539 107.50000 0.00000 0.00000
 265 69.96656 108.50000 0.00000 0.00000
 266 51.47539 109.15000 0.00000 0.00000
 267 129.93789 106.00000 0.00000 0.00000
 268 45.77812 124.00000 0.00000 0.00000
 269 45.77812 124.00000 0.00000 0.00000
 270 24.98806 124.00000 19.99044 2.14000
 271 24.98806 122.50000 19.99044 2.14000
 272 129.93789 110.00000 0.00000 0.00000
 273 45.77812 120.00000 0.00000 0.00000
 274 24.98806 120.00000 19.99044 2.14000
 275 24.98806 125.00000 19.99044 2.12000
 276 129.93789 112.50000 0.00000 0.00000
 277 144.93072 108.00000 0.00000 0.00000
 278 45.77812 122.00000 0.00000 0.00000
 279 21.98949 122.00000 14.99283 2.18000
 280 31.98471 126.00000 24.98806 2.14000
 281 144.93072 108.00000 0.00000 0.00000
 282 79.96178 118.00000 0.00000 0.00000
 283 79.96178 121.00000 0.00000 0.00000
 284 79.96178 121.00000 0.00000 0.00000
 285 79.96178 121.00000 0.00000 0.00000
 286 49.97611 121.70000 0.00000 0.00000
 287 79.96178 122.50000 0.00000 0.00000
 288 79.96178 122.50000 0.00000 0.00000
 289 79.96178 118.00000 0.00000 0.00000
 290 14.99283 121.00000 49.97611 2.44000
 291 14.99283 121.00000 49.97611 2.44000
 292 14.99283 121.00000 49.97611 2.44000
 293 43.97898 122.00000 0.00000 0.00000
 294 74.96417 122.50000 49.97611 2.37000
 295 69.96656 125.00000 19.99044 2.44200
 296 69.96656 125.00000 19.99044 2.44200
 297 69.96656 125.00000 19.99044 2.44200
 298 69.96656 125.00000 19.99044 2.44200
 299 39.98089 120.00000 0.00000 0.00000
 300 39.98089 118.00000 49.97611 2.38800
 301 39.98089 118.00000 49.97611 2.38800
 302 39.98089 118.00000 49.97611 2.38800
 303 39.98089 118.00000 49.97611 2.38800
 304 99.95222 124.00000 69.96656 2.22500
 305 64.96894 122.00000 0.00000 0.00000
 306 64.96894 118.30000 0.00000 0.00000
 307 64.96894 118.30000 0.00000 0.00000
 308 45.17840 120.00000 0.00000 0.00000
 309 54.97372 110.50000 0.00000 0.00000
 310 54.97372 110.50000 0.00000 0.00000
 311 49.97611 123.00000 209.89967 2.26200
 312 75.66383 110.10000 0.00000 0.00000
 313 75.66383 110.10000 0.00000 0.00000
 314 45.87807 108.89000 0.00000 0.00000
 315 75.66383 110.10000 0.00000 0.00000
 316 75.66383 110.10000 0.00000 0.00000
 317 75.66383 110.10000 0.00000 0.00000
 318 45.87807 108.89000 0.00000 0.00000
 319 45.87807 108.89000 0.00000 0.00000
 320 54.97372 109.00000 19.99044 2.32600
 321 54.97372 109.00000 19.99044 2.32600
 322 54.97372 109.00000 19.99044 2.32600
 323 54.97372 109.00000 19.99044 2.32600
 324 89.95700 125.90000 159.92355 2.25760
 325 59.97133 109.50000 0.00000 0.00000
 326 59.97133 109.50000 0.00000 0.00000
 327 57.97229 112.50000 0.00000 0.00000
 328 57.97229 114.50000 0.00000 0.00000
 329 57.97229 114.50000 0.00000 0.00000
 330 46.07797 111.30000 0.00000 0.00000
 331 46.07797 111.30000 0.00000 0.00000
 332 57.97229 112.50000 0.00000 0.00000
 333 57.97229 112.50000 0.00000 0.00000
 334 37.98184 111.00000 0.00000 0.00000
 335 37.98184 111.00000 0.00000 0.00000
 336 72.46536 103.30000 0.00000 0.00000
 337 72.46536 103.30000 0.00000 0.00000
 338 54.97372 118.00000 0.00000 0.00000
 339 39.98089 112.30000 0.00000 0.00000
 340 39.98089 112.30000 0.00000 0.00000
 341 74.96417 121.00000 0.00000 0.00000
 342 69.96656 113.50000 0.00000 0.00000
 343 34.98328 111.00000 0.00000 0.00000
 344 51.97516 108.00000 0.00000 0.00000
 345 26.48734 110.10000 22.51923 2.17900
 346 58.32212 113.50000 11.15467 2.56100
 347 35.48304 109.00000 5.39742 1.80200
 348 26.48734 110.10000 22.51923 2.17900
 349 26.48734 110.10000 22.51923 2.17900
 350 51.97516 108.00000 0.00000 0.00000
 351 58.32212 113.00000 0.00000 0.00000
 352 33.41403 109.50000 0.00000 0.00000
 353 45.77812 130.00000 0.00000 0.00000
 354 45.77812 122.00000 0.00000 0.00000
 355 51.97516 108.00000 0.00000 0.00000
 356 32.98423 109.50000 29.98567 2.16300
 357 39.98089 118.00000 49.97611 2.38800
 358 67.66765 110.00000 0.00000 0.00000
 359 51.97516 108.00000 0.00000 0.00000
 360 67.66765 110.00000 0.00000 0.00000
 361 51.97516 108.00000 0.00000 0.00000
 362 51.97516 108.00000 0.00000 0.00000
 363 51.97516 108.00000 0.00000 0.00000
 364 34.98328 111.00000 0.00000 0.00000
 365 69.96656 113.50000 0.00000 0.00000
 366 67.66765 110.00000 0.00000 0.00000
 367 54.97372 118.00000 0.00000 0.00000
 368 34.58347 110.10000 22.51923 2.17900
 369 64.96894 122.00000 0.00000 0.00000
 370 39.98089 180.00000 0.00000 0.00000
 371 39.98089 180.00000 0.00000 0.00000
 372 21.18987 180.00000 0.00000 0.00000
 373 21.18987 180.00000 0.00000 0.00000
 374 40.68055 179.93000 0.00000 0.00000
 375 18.99092 180.00000 0.00000 0.00000
 376 10.99474 180.00000 0.00000 0.00000
 377 10.99474 180.00000 0.00000 0.00000
 378 10.99474 180.00000 0.00000 0.00000
 379 7.99618 180.00000 0.00000 0.00000
 380 39.98089 125.00000 0.00000 0.00000
 381 39.98089 124.00000 0.00000 0.00000
 382 39.98089 124.00000 0.00000 0.00000
 383 39.98089 119.00000 0.00000 0.00000
 384 43.03943 122.22000 0.00000 0.00000
 385 39.98089 119.00000 0.00000 0.00000
 386 40.10083 133.18000 0.00000 0.00000
 387 39.98089 130.00000 0.00000 0.00000
 388 39.98089 130.00000 0.00000 0.00000
 389 117.96361 110.35000 0.00000 0.00000
 390 115.94458 111.00000 0.00000 0.00000
 391 109.94744 111.00000 0.00000 0.00000
 392 39.98089 125.00000 0.00000 0.00000
 393 39.98089 124.00000 0.00000 0.00000
 394 39.98089 124.00000 0.00000 0.00000
 395 39.98089 119.00000 0.00000 0.00000
 396 43.03943 122.22000 0.00000 0.00000
 397 39.98089 119.00000 0.00000 0.00000
 398 40.10083 133.18000 0.00000 0.00000
 399 39.98089 130.00000 0.00000 0.00000
 400 39.98089 130.00000 0.00000 0.00000
 401 117.96361 110.35000 0.00000 0.00000
 402 115.94458 111.00000 0.00000 0.00000
 403 109.94744 111.00000 0.00000 0.00000
 404 32.98423 113.00000 0.00000 0.00000
 405 32.98423 131.50000 0.00000 0.00000
 406 32.98423 115.50000 0.00000 0.00000
 407 32.98423 130.00000 0.00000 0.00000
 408 44.97850 114.50000 0.00000 0.00000
 409 32.98423 113.00000 0.00000 0.00000
 410 32.98423 131.50000 0.00000 0.00000
 411 32.98423 115.50000 0.00000 0.00000
 412 32.98423 130.00000 0.00000 0.00000
 413 44.97850 114.50000 0.00000 0.00000
 414 47.97707 126.00000 0.00000 0.00000
 415 39.98089 116.00000 0.00000 0.00000
 416 47.97707 123.50000 0.00000 0.00000
 417 47.97707 123.50000 0.00000 0.00000
 418 42.21982 121.96000 0.00000 0.00000
 419 47.97707 123.50000 0.00000 0.00000
 420 38.98137 122.50000 0.00000 0.00000
 421 47.97707 123.50000 0.00000 0.00000
 422 51.97516 119.50000 0.00000 0.00000
 423 39.98089 127.50000 0.00000 0.00000
 424 51.97516 119.50000 0.00000 0.00000
 425 47.97707 126.00000 0.00000 0.00000
 426 46.97754 125.20000 0.00000 0.00000
 427 41.97993 118.00000 0.00000 0.00000
 428 39.98089 127.50000 0.00000 0.00000
 429 51.97516 119.50000 0.00000 0.00000
 430 49.97611 113.00000 0.00000 0.00000
 431 47.97707 123.50000 0.00000 0.00000
 432 39.98089 116.00000 0.00000 0.00000
 433 35.34311 115.83000 0.00000 0.00000
 434 47.97707 123.50000 0.00000 0.00000
 435 39.98089 116.00000 0.00000 0.00000
 436 36.98232 118.00000 0.00000 0.00000
 437 54.97372 119.00000 0.00000 0.00000
 438 79.96178 123.00000 0.00000 0.00000
 439 46.97754 125.60000 0.00000 0.00000
 440 21.98949 117.00000 0.00000 0.00000
 441 41.97993 120.40000 0.00000 0.00000
 442 48.97659 119.50000 0.00000 0.00000
 443 38.98137 114.00000 0.00000 0.00000
 444 59.97133 122.00000 0.00000 0.00000
 445 59.97133 122.00000 0.00000 0.00000
 446 39.98089 126.00000 0.00000 0.00000
 447 51.97516 122.00000 0.00000 0.00000
 448 79.96178 128.00000 0.00000 0.00000
 449 64.96894 123.50000 0.00000 0.00000
 450 43.97898 121.00000 0.00000 0.00000
 451 48.01705 117.50000 0.00000 0.00000
 452 59.97133 108.06000 0.00000 0.00000
 453 89.95700 125.00000 0.00000 0.00000
 454 60.48109 120.74000 0.00000 0.00000
 455 59.97133 122.00000 0.00000 0.00000
 456 59.97133 122.00000 0.00000 0.00000
 457 55.97324 124.50000 0.00000 0.00000
 458 55.97324 124.50000 0.00000 0.00000
 459 53.43446 137.91000 0.00000 0.00000
 460 39.98089 128.00000 0.00000 0.00000
 461 41.97993 120.00000 0.00000 0.00000
 462 78.61242 120.66000 0.00000 0.00000
 463 68.57722 111.88000 0.00000 0.00000
 464 66.55818 120.73000 0.00000 0.00000
 465 76.12361 121.17000 0.00000 0.00000
 466 35.64296 117.28000 0.00000 0.00000
 467 72.56531 119.56000 0.00000 0.00000
 468 48.97659 119.50000 0.00000 0.00000
 469 41.97993 119.00000 0.00000 0.00000
 470 41.97993 119.00000 0.00000 0.00000
 471 29.98567 113.00000 0.00000 0.00000
 472 29.98567 115.50000 0.00000 0.00000
 473 29.98567 112.00000 0.00000 0.00000
 474 44.97850 120.50000 0.00000 0.00000
 475 34.98328 120.50000 0.00000 0.00000
 476 55.47348 120.50000 0.00000 0.00000
 477 34.98328 120.50000 0.00000 0.00000
 478 18.99092 119.00000 0.00000 0.00000
 479 59.97133 122.00000 0.00000 0.00000
 480 59.97133 122.00000 0.00000 0.00000
 481 39.98089 126.00000 0.00000 0.00000
 482 51.97516 122.00000 0.00000 0.00000
 483 79.96178 128.00000 0.00000 0.00000
 484 64.96894 123.50000 0.00000 0.00000
 485 43.97898 121.00000 0.00000 0.00000
 486 48.01705 117.50000 0.00000 0.00000
 487 59.97133 108.06000 0.00000 0.00000
 488 89.95700 125.00000 0.00000 0.00000
 489 60.48109 120.74000 0.00000 0.00000
 490 59.97133 122.00000 0.00000 0.00000
 491 59.97133 122.00000 0.00000 0.00000
 492 55.97324 124.50000 0.00000 0.00000
 493 55.97324 124.50000 0.00000 0.00000
 494 53.43446 137.91000 0.00000 0.00000
 495 39.98089 128.00000 0.00000 0.00000
 496 41.97993 120.00000 0.00000 0.00000
 497 78.61242 120.66000 0.00000 0.00000
 498 68.57722 111.88000 0.00000 0.00000
 499 66.55818 120.73000 0.00000 0.00000
 500 76.12361 121.17000 0.00000 0.00000
 501 35.64296 117.28000 0.00000 0.00000
 502 72.56531 119.56000 0.00000 0.00000
 503 48.97659 119.50000 0.00000 0.00000
 504 41.97993 119.00000 0.00000 0.00000
 505 41.97993 119.00000 0.00000 0.00000
 506 29.98567 113.00000 0.00000 0.00000
 507 29.98567 115.50000 0.00000 0.00000
 508 29.98567 112.00000 0.00000 0.00000
 509 28.98614 122.00000 0.00000 0.00000
 510 29.58586 110.07000 0.00000 0.00000
 511 44.25884 118.45000 0.00000 0.00000
 512 30.18557 116.19000 0.00000 0.00000
 513 47.97707 120.00000 0.00000 0.00000
 514 64.96894 113.00000 0.00000 0.00000
 515 64.96894 113.00000 0.00000 0.00000
 516 47.97707 123.50000 0.00000 0.00000
 517 64.96894 113.00000 0.00000 0.00000
 518 43.47922 126.50000 0.00000 0.00000
 519 43.47922 126.50000 0.00000 0.00000
 520 41.97993 122.00000 0.00000 0.00000
 521 47.97707 123.00000 0.00000 0.00000
 522 47.97707 123.50000 0.00000 0.00000
 523 47.97707 123.50000 0.00000 0.00000
 524 59.97133 120.00000 0.00000 0.00000
 525 59.97133 120.00000 0.00000 0.00000
 526 28.95616 120.92000 0.00000 0.00000
 527 28.98614 122.00000 0.00000 0.00000
 528 47.97707 123.50000 0.00000 0.00000
 529 47.97707 123.50000 0.00000 0.00000
 530 47.97707 123.50000 0.00000 0.00000
 531 41.97993 119.00000 0.00000 0.00000
 532 46.63771 122.96000 0.00000 0.00000
 533 47.97707 123.50000 0.00000 0.00000
 534 48.13699 121.57000 0.00000 0.00000
 535 47.97707 123.50000 0.00000 0.00000
 536 47.97707 113.00000 0.00000 0.00000
 537 56.14316 121.53000 0.00000 0.00000
 538 39.98089 125.60000 0.00000 0.00000
 539 41.97993 118.00000 0.00000 0.00000
 540 41.97993 120.40000 0.00000 0.00000
 541 39.98089 119.00000 34.98328 2.52670
 542 59.97133 120.00000 0.00000 0.00000
 543 34.98328 118.60000 0.00000 0.00000
 544 28.98614 122.00000 0.00000 0.00000
 545 28.98614 122.00000 0.00000 0.00000
 546 47.97707 123.50000 0.00000 0.00000
 547 47.97707 123.50000 0.00000 0.00000
 548 41.97993 118.00000 0.00000 0.00000
 549 64.96894 123.50000 0.00000 0.00000
 550 51.97516 119.50000 0.00000 0.00000
 551 31.98471 122.00000 0.00000 0.00000
 552 64.96894 123.50000 0.00000 0.00000
 553 64.96894 123.50000 0.00000 0.00000
 554 32.57443 129.03000 0.00000 0.00000
 555 51.97516 119.50000 0.00000 0.00000
 556 31.98471 122.00000 0.00000 0.00000
 557 64.96894 123.50000 0.00000 0.00000
 558 60.44111 114.69000 0.00000 0.00000
 559 31.98471 123.40000 0.00000 0.00000
 560 31.98471 120.00000 0.00000 0.00000
 561 48.41686 127.34000 0.00000 0.00000
 562 48.41686 127.34000 0.00000 0.00000
 563 55.97324 117.00000 0.00000 0.00000
 564 55.97324 117.00000 0.00000 0.00000
 565 31.98471 120.00000 0.00000 0.00000
 566 47.97707 123.50000 0.00000 0.00000
 567 55.32355 142.24000 0.00000 0.00000
 568 39.98089 116.00000 0.00000 0.00000
 569 46.97754 113.00000 0.00000 0.00000
 570 55.32355 142.24000 0.00000 0.00000
 571 41.97993 117.50000 0.00000 0.00000
 572 37.98184 123.00000 0.00000 0.00000
 573 37.98184 114.00000 0.00000 0.00000
 574 28.98614 122.00000 0.00000 0.00000
 575 29.58586 110.07000 0.00000 0.00000
 576 44.25884 118.45000 0.00000 0.00000
 577 30.18557 116.19000 0.00000 0.00000
 578 47.97707 120.00000 0.00000 0.00000
 579 64.96894 113.00000 0.00000 0.00000
 580 64.96894 113.00000 0.00000 0.00000
 581 47.97707 123.50000 0.00000 0.00000
 582 64.96894 113.00000 0.00000 0.00000
 583 43.47922 126.50000 0.00000 0.00000
 584 43.47922 126.50000 0.00000 0.00000
 585 41.97993 122.00000 0.00000 0.00000
 586 46.63771 122.96000 0.00000 0.00000
 587 47.97707 123.00000 0.00000 0.00000
 588 47.97707 123.50000 0.00000 0.00000
 589 48.13699 121.57000 0.00000 0.00000
 590 47.97707 123.50000 0.00000 0.00000
 591 47.97707 113.00000 0.00000 0.00000
 592 56.14316 121.53000 0.00000 0.00000
 593 39.98089 125.60000 0.00000 0.00000
 594 41.97993 118.00000 0.00000 0.00000
 595 41.97993 120.40000 0.00000 0.00000
 596 47.97707 123.50000 0.00000 0.00000
 597 47.97707 123.50000 0.00000 0.00000
 598 59.97133 120.00000 0.00000 0.00000
 599 59.97133 120.00000 0.00000 0.00000
 600 28.95616 120.92000 0.00000 0.00000
 601 28.98614 122.00000 0.00000 0.00000
 602 47.97707 123.50000 0.00000 0.00000
 603 47.97707 123.50000 0.00000 0.00000
 604 47.97707 123.50000 0.00000 0.00000
 605 41.97993 119.00000 0.00000 0.00000
 606 39.98089 119.00000 34.98328 2.52670
 607 59.97133 120.00000 0.00000 0.00000
 608 34.98328 118.60000 0.00000 0.00000
 609 28.98614 122.00000 0.00000 0.00000
 610 28.98614 122.00000 0.00000 0.00000
 611 47.97707 123.50000 0.00000 0.00000
 612 47.97707 123.50000 0.00000 0.00000
 613 41.97993 118.00000 0.00000 0.00000
 614 64.96894 123.50000 0.00000 0.00000
 615 51.97516 119.50000 0.00000 0.00000
 616 31.98471 122.00000 0.00000 0.00000
 617 64.96894 123.50000 0.00000 0.00000
 618 64.96894 123.50000 0.00000 0.00000
 619 32.57443 129.03000 0.00000 0.00000
 620 51.97516 119.50000 0.00000 0.00000
 621 31.98471 122.00000 0.00000 0.00000
 622 64.96894 123.50000 0.00000 0.00000
 623 60.44111 114.69000 0.00000 0.00000
 624 31.98471 123.40000 0.00000 0.00000
 625 31.98471 120.00000 0.00000 0.00000
 626 48.41686 127.34000 0.00000 0.00000
 627 48.41686 127.34000 0.00000 0.00000
 628 55.97324 117.00000 0.00000 0.00000
 629 55.97324 117.00000 0.00000 0.00000
 630 31.98471 120.00000 0.00000 0.00000
 631 47.97707 123.50000 0.00000 0.00000
 632 55.32355 142.24000 0.00000 0.00000
 633 39.98089 116.00000 0.00000 0.00000
 634 46.97754 113.00000 0.00000 0.00000
 635 55.32355 142.24000 0.00000 0.00000
 636 41.97993 117.50000 0.00000 0.00000
 637 37.98184 123.00000 0.00000 0.00000
 638 37.98184 114.00000 0.00000 0.00000
 639 34.98328 120.50000 0.00000 0.00000
 640 34.98328 120.50000 0.00000 0.00000
 641 44.97850 120.50000 0.00000 0.00000
 642 44.97850 120.50000 0.00000 0.00000
 643 44.97850 120.50000 0.00000 0.00000
 644 44.97850 120.50000 0.00000 0.00000
 645 18.99092 119.00000 0.00000 0.00000
 646 49.97611 125.00000 0.00000 0.00000
 647 99.95222 125.00000 0.00000 0.00000
 648 51.97516 120.00000 89.95700 2.36420
 649 49.97611 113.00000 0.00000 0.00000
 650 74.96417 113.00000 0.00000 0.00000
 651 62.96990 118.50000 0.00000 0.00000
 652 79.96178 118.50000 0.00000 0.00000
 653 51.97516 118.50000 0.00000 0.00000
 654 69.96656 132.00000 0.00000 0.00000
 655 84.95939 127.00000 0.00000 0.00000
 656 36.98232 116.40000 0.00000 0.00000
 657 51.97516 123.00000 89.95700 2.36420
 658 55.97324 116.60000 0.00000 0.00000
 659 79.96178 116.50000 0.00000 0.00000
 660 79.96178 122.50000 0.00000 0.00000
 661 79.96178 116.50000 0.00000 0.00000
 662 79.96178 122.50000 0.00000 0.00000
 663 99.95222 107.50000 0.00000 0.00000
 664 79.96178 116.50000 0.00000 0.00000
 665 84.95939 113.00000 79.96178 2.46000
 666 79.96178 122.50000 0.00000 0.00000
 667 99.95222 107.50000 0.00000 0.00000
 668 79.96178 116.50000 0.00000 0.00000
 669 84.95939 113.00000 79.96178 2.46000
 670 79.96178 122.50000 0.00000 0.00000
 671 51.97516 115.50000 0.00000 0.00000
 672 44.97850 122.00000 0.00000 0.00000
 673 79.96178 117.00000 0.00000 0.00000
 674 79.96178 116.50000 0.00000 0.00000
 675 49.97611 110.23000 0.00000 0.00000
 676 29.98567 121.00000 0.00000 0.00000
 677 84.95939 113.00000 79.96178 2.46000
 678 84.95939 118.50000 19.99044 2.43000
 679 79.96178 108.81000 0.00000 0.00000
 680 19.99044 112.50000 0.00000 0.00000
 681 79.96178 116.50000 0.00000 0.00000
 682 49.97611 116.50000 49.97611 2.45000
 683 79.96178 121.00000 0.00000 0.00000
 684 19.99044 112.50000 0.00000 0.00000
 685 79.96178 116.50000 0.00000 0.00000
 686 49.97611 116.50000 49.97611 2.45000
 687 79.96178 121.00000 0.00000 0.00000
 688 19.99044 112.50000 0.00000 0.00000
 689 79.96178 116.50000 0.00000 0.00000
 690 49.97611 116.50000 49.97611 2.45000
 691 79.96178 121.00000 0.00000 0.00000
 692 54.40399 123.76000 0.00000 0.00000
 693 19.99044 112.50000 0.00000 0.00000
 694 79.96178 116.50000 0.00000 0.00000
 695 49.97611 116.50000 49.97611 2.45000
 696 79.96178 121.00000 0.00000 0.00000
 697 70.54628 109.65000 0.00000 0.00000
 698 39.98089 115.00000 0.00000 0.00000
 699 79.96178 116.50000 0.00000 0.00000
 700 49.97611 116.50000 49.97611 2.45000
 701 79.96178 121.00000 0.00000 0.00000
 702 79.96178 116.50000 0.00000 0.00000
 703 79.96178 118.00000 0.00000 0.00000
 704 19.99044 112.50000 0.00000 0.00000
 705 79.96178 116.50000 0.00000 0.00000
 706 79.96178 112.50000 0.00000 0.00000
 707 79.96178 118.00000 0.00000 0.00000
 708 19.99044 112.50000 0.00000 0.00000
 709 79.96178 116.50000 0.00000 0.00000
 710 79.96178 112.50000 0.00000 0.00000
 711 79.96178 118.00000 0.00000 0.00000
 712 79.96178 120.54000 0.00000 0.00000
 713 79.96178 124.00000 0.00000 0.00000
 714 42.97946 115.00000 0.00000 0.00000
 715 79.96178 122.50000 0.00000 0.00000
 716 40.99041 126.52000 0.00000 0.00000
 717 43.97898 111.00000 49.97611 1.98000
 718 74.96417 122.50000 49.97611 2.37000
 719 43.97898 111.00000 49.97611 1.98000
 720 43.97898 122.00000 0.00000 0.00000
 721 69.96656 121.80000 0.00000 0.00000
 722 39.96090 112.47000 29.95569 2.34360
 723 69.96656 121.80000 0.00000 0.00000
 724 39.96090 112.47000 29.95569 2.34360
 725 69.96656 123.10000 19.99044 2.44200
 726 49.97611 111.00000 19.99044 2.36000
 727 39.98089 113.90000 29.98567 2.37000
 728 43.50920 114.54000 18.60111 2.68260
 729 69.96656 125.00000 19.99044 2.44200
 730 54.97372 109.00000 19.99044 2.32600
 731 54.97372 110.50000 0.00000 0.00000
 732 69.96656 125.00000 19.99044 2.44200
 733 54.97372 109.00000 19.99044 2.32600
 734 54.97372 109.00000 19.99044 2.32600
 735 54.97372 110.50000 0.00000 0.00000
 736 39.57108 112.73000 19.92047 2.76700
 737 69.96656 125.00000 19.99044 2.44200
 738 54.97372 109.00000 19.99044 2.32600
 739 54.97372 110.50000 0.00000 0.00000
 740 42.81953 116.03000 19.93047 2.77880
 741 89.95700 125.90000 159.92355 2.25760
 742 89.95700 125.90000 159.92355 2.25760
 743 49.97611 123.00000 209.89967 2.26200
 744 68.34733 122.40000 19.68059 2.70940
 745 38.98137 119.00000 0.00000 0.00000
 746 46.97754 105.00000 0.00000 0.00000
 747 39.98089 116.00000 49.97611 2.35300
 748 39.98089 116.00000 49.97611 2.35300
 749 94.95461 116.00000 0.00000 0.00000
 750 39.98089 116.00000 49.97611 2.35300
 751 39.98089 116.00000 49.97611 2.35300
 752 39.98089 116.00000 49.97611 2.35300
 753 39.98089 116.00000 49.97611 2.35300
 754 39.98089 116.00000 49.97611 2.35300
 755 30.96520 104.01000 49.96611 2.43700
 756 39.98089 116.00000 49.97611 2.35300
 757 39.98089 116.00000 49.97611 2.35300
 758 39.98089 116.00000 49.97611 2.35300
 759 39.98089 116.00000 49.97611 2.35300
 760 79.44203 105.91000 0.00000 0.00000
 761 99.95222 128.00000 69.96656 2.25870
 762 44.97850 116.00000 0.00000 0.00000
 763 74.96417 126.00000 0.00000 0.00000
 764 14.99283 116.00000 0.00000 0.00000
 765 74.96417 126.00000 0.00000 0.00000
 766 14.99283 116.00000 0.00000 0.00000
 767 74.96417 126.00000 0.00000 0.00000
 768 14.99283 116.00000 0.00000 0.00000
 769 74.96417 126.00000 0.00000 0.00000
 770 21.98949 114.00000 0.00000 0.00000
 771 44.97850 126.00000 0.00000 0.00000
 772 64.96894 116.00000 0.00000 0.00000
 773 44.97850 126.00000 0.00000 0.00000
 774 64.96894 116.00000 0.00000 0.00000
 775 44.97850 126.00000 0.00000 0.00000
 776 64.96894 116.00000 0.00000 0.00000
 777 88.95748 98.00000 0.00000 0.00000
 778 69.96656 134.00000 0.00000 0.00000
 779 79.96178 134.00000 0.00000 0.00000
 780 88.95748 99.00000 0.00000 0.00000
 781 69.96656 127.00000 0.00000 0.00000
 782 64.96894 118.00000 0.00000 0.00000
 783 40.57061 107.73000 0.00000 0.00000
 784 69.96656 121.80000 0.00000 0.00000
 785 40.57061 107.73000 0.00000 0.00000
 786 69.96656 121.80000 0.00000 0.00000
 787 35.98280 102.84000 0.00000 0.00000
 788 36.83239 117.43000 0.00000 0.00000
 789 40.06085 108.42000 0.00000 0.00000
 790 34.98328 116.00000 0.00000 0.00000
 791 69.96656 121.80000 0.00000 0.00000
 792 35.98280 102.84000 0.00000 0.00000
 793 36.83239 117.43000 0.00000 0.00000
 794 40.06085 108.42000 0.00000 0.00000
 795 34.98328 116.00000 0.00000 0.00000
 796 69.96656 121.80000 0.00000 0.00000
 797 39.98089 117.20000 0.00000 0.00000
 798 19.99044 108.19000 0.00000 0.00000
 799 94.95461 121.50000 0.00000 0.00000
 800 38.62154 107.15000 0.00000 0.00000
 801 89.79708 116.55000 0.00000 0.00000
 802 69.96656 121.30000 0.00000 0.00000
 803 39.91092 107.75000 0.00000 0.00000
 804 39.98089 117.20000 0.00000 0.00000
 805 19.99044 116.50000 0.00000 0.00000
 806 59.97133 116.50000 0.00000 0.00000
 807 69.96656 121.30000 0.00000 0.00000
 808 94.95461 121.50000 0.00000 0.00000
 809 34.98328 115.60000 0.00000 0.00000
 810 34.98328 115.60000 0.00000 0.00000
 811 74.96417 122.20000 0.00000 0.00000
 812 34.98328 115.60000 0.00000 0.00000
 813 74.96417 122.20000 0.00000 0.00000
 814 71.56579 112.50000 0.00000 0.00000
 815 87.56814 125.44000 0.00000 0.00000
 816 49.97611 112.30000 0.00000 0.00000
 817 69.96656 122.00000 0.00000 0.00000
 818 70.46632 112.90000 0.00000 0.00000
 819 62.67004 125.70000 0.00000 0.00000
 820 89.95700 110.30000 0.00000 0.00000
 821 69.96656 115.00000 0.00000 0.00000
 822 69.96656 115.00000 0.00000 0.00000
 823 59.97133 125.70000 0.00000 0.00000
 824 89.95700 110.30000 0.00000 0.00000
 825 71.97559 129.09000 0.00000 0.00000
 826 69.96656 115.00000 0.00000 0.00000
 827 74.96417 122.50000 49.97611 2.37000
 828 83.09028 128.93000 0.00000 0.00000
 829 41.40021 112.27000 0.00000 0.00000
 830 69.96656 123.50000 0.00000 0.00000
 831 41.53015 122.09000 0.00000 0.00000
 832 39.98089 120.00000 99.45246 2.24127
 833 78.96226 120.00000 0.00000 0.00000
 834 84.95939 105.00000 0.00000 0.00000
 835 69.96656 124.00000 0.00000 0.00000
 836 39.98089 112.00000 0.00000 0.00000
 837 41.97993 172.00000 0.00000 0.00000
 838 44.97850 180.00000 0.00000 0.00000
 839 44.97850 128.70000 0.00000 0.00000
 840 39.98089 126.70000 0.00000 0.00000
 841 34.86333 154.35000 0.00000 0.00000
 842 34.90332 152.49000 0.00000 0.00000
 843 34.98328 153.48000 19.52066 2.51910
 844 34.86333 154.35000 0.00000 0.00000
 845 34.90332 152.49000 0.00000 0.00000
 846 34.98328 153.48000 19.52066 2.51910
 847 14.99283 125.30000 0.00000 0.00000
 848 14.99283 128.00000 0.00000 0.00000
 849 34.98328 130.00000 0.00000 0.00000
 850 34.98328 124.00000 0.00000 0.00000
 851 34.98328 130.00000 0.00000 0.00000
 852 34.98328 124.00000 0.00000 0.00000
 853 89.95700 107.20000 0.00000 0.00000
 854 89.95700 106.00000 0.00000 0.00000
 855 99.95222 116.50000 0.00000 0.00000
 856 89.95700 107.20000 0.00000 0.00000
 857 84.95939 105.70000 24.98806 2.26100
 858 69.96656 106.90000 0.00000 0.00000
 859 45.77812 130.00000 0.00000 0.00000
 860 49.01657 131.25000 0.00000 0.00000
 861 45.77812 130.00000 0.00000 0.00000
 862 45.77812 130.00000 0.00000 0.00000
 863 45.77812 130.00000 0.00000 0.00000
 864 114.94505 109.00000 0.00000 0.00000
 865 114.94505 109.00000 0.00000 0.00000
 866 114.94505 109.00000 0.00000 0.00000
 867 114.94505 109.00000 0.00000 0.00000
 868 114.94505 109.00000 0.00000 0.00000
 869 129.93789 110.00000 0.00000 0.00000
 870 129.93789 106.00000 0.00000 0.00000
 871 144.93072 108.00000 0.00000 0.00000
 872 129.93789 106.00000 0.00000 0.00000
 873 129.93789 108.20000 0.00000 0.00000
 874 104.94983 111.80000 0.00000 0.00000
 875 119.94267 111.00000 0.00000 0.00000
 876 129.93789 111.70000 0.00000 0.00000
 877 61.96038 128.12000 0.00000 0.00000
 878 75.45393 134.91000 0.00000 0.00000
 879 134.93550 113.20000 0.00000 0.00000
 880 104.94983 109.00000 0.00000 0.00000
 881 26.98710 129.00000 0.00000 0.00000
 882 31.98471 126.40000 24.98806 2.17300
 883 21.98949 130.00000 14.99283 2.21500
 884 19.99044 130.00000 0.00000 0.00000
 885 14.99283 127.60000 0.00000 0.00000
 886 9.99522 117.10000 0.00000 0.00000
 887 129.93789 106.00000 0.00000 0.00000
 888 31.98471 126.40000 24.98806 2.17300
 889 21.98949 130.00000 14.99283 2.21500
 890 29.98567 126.70000 0.00000 0.00000
 891 29.98567 126.70000 0.00000 0.00000
 892 29.98567 126.70000 0.00000 0.00000
 893 29.98567 126.70000 0.00000 0.00000
 894 99.95222 107.50000 0.00000 0.00000
 895 31.98471 126.40000 24.98806 2.25500
 896 30.98519 128.50000 0.00000 0.00000
 897 31.98471 126.70000 0.00000 0.00000
 898 38.99136 113.97000 0.00000 0.00000
 899 50.13603 121.14000 0.00000 0.00000
 900 45.32833 119.83000 0.00000 0.00000
 901 45.77812 120.00000 0.00000 0.00000
 902 45.77812 124.00000 0.00000 0.00000
 903 45.77812 122.00000 0.00000 0.00000
 904 59.97133 126.70000 0.00000 0.00000
 905 45.75813 114.16000 0.00000 0.00000
 906 37.43211 123.70000 0.00000 0.00000
 907 45.32833 119.83000 0.00000 0.00000
 908 45.77812 120.00000 0.00000 0.00000
 909 45.77812 124.00000 0.00000 0.00000
 910 45.77812 122.00000 0.00000 0.00000
 911 59.97133 126.70000 0.00000 0.00000
 912 45.49825 111.07000 0.00000 0.00000
 913 37.43211 123.70000 0.00000 0.00000
 914 28.98614 124.60000 0.00000 0.00000
 915 28.98614 124.60000 0.00000 0.00000
 916 28.98614 124.60000 0.00000 0.00000
 917 12.99379 124.60000 0.00000 0.00000
 918 12.99379 124.60000 0.00000 0.00000
 919 24.98806 120.00000 19.99044 2.14000
 920 36.85238 114.68000 0.00000 0.00000
 921 45.70815 121.80000 0.00000 0.00000
 922 24.98806 124.00000 19.99044 2.14000
 923 21.98949 122.00000 14.99283 2.18000
 924 24.98806 124.00000 19.99044 2.14000
 925 30.98519 121.80000 0.00000 0.00000
 926 34.98328 118.20000 0.00000 0.00000
 927 34.98328 119.00000 0.00000 0.00000
 928 49.97611 118.30000 0.00000 0.00000
 929 38.98137 116.80000 0.00000 0.00000
 930 26.98710 122.00000 0.00000 0.00000
 931 44.97850 121.00000 0.00000 0.00000
 932 31.98471 130.00000 0.00000 0.00000
 933 109.94744 110.50000 0.00000 0.00000
 934 120.94219 110.00000 0.00000 0.00000
 935 31.98471 126.50000 0.00000 0.00000
 936 69.96656 106.00000 0.00000 0.00000
 937 29.98567 131.00000 0.00000 0.00000
 938 149.92833 110.40000 0.00000 0.00000
 939 31.98471 126.60000 0.00000 0.00000
 940 44.97850 120.00000 0.00000 0.00000
 941 169.91878 112.00000 0.00000 0.00000
 942 46.97754 125.00000 0.00000 0.00000
 943 31.98471 123.00000 0.00000 0.00000
 944 34.98328 123.50000 0.00000 0.00000
 945 49.97611 107.00000 0.00000 0.00000
 946 54.97372 108.50000 0.00000 0.00000
 947 54.97372 124.50000 0.00000 0.00000
 948 49.97611 107.00000 0.00000 0.00000
 949 54.97372 108.50000 0.00000 0.00000
 950 54.97372 124.50000 0.00000 0.00000
 951 49.97611 107.00000 0.00000 0.00000
 952 54.97372 125.50000 0.00000 0.00000
 953 49.97611 107.00000 0.00000 0.00000
 954 54.97372 125.50000 0.00000 0.00000
 955 36.11274 135.82000 0.00000 0.00000
 956 35.00327 123.39000 0.00000 0.00000
 957 36.11274 135.82000 0.00000 0.00000
 958 35.00327 123.39000 0.00000 0.00000
 959 60.77095 127.50000 0.00000 0.00000
 960 65.46871 105.00000 0.00000 0.00000
 961 24.98806 124.50000 0.00000 0.00000
 962 24.98806 118.30000 0.00000 0.00000
 963 45.77812 123.00000 0.00000 0.00000
 964 45.77812 120.00000 0.00000 0.00000
 965 45.77812 123.00000 0.00000 0.00000
 966 45.77812 120.00000 0.00000 0.00000
 967 45.68816 148.17000 0.00000 0.00000
 968 45.77812 123.00000 0.00000 0.00000
 969 45.77812 120.00000 0.00000 0.00000
 970 45.68816 148.17000 0.00000 0.00000
 971 119.94267 104.50000 0.00000 0.00000
 972 59.97133 135.70000 0.00000 0.00000
 973 79.96178 106.00000 0.00000 0.00000
 974 54.97372 126.20000 0.00000 0.00000
 975 119.94267 105.50000 0.00000 0.00000
 976 64.96894 126.70000 0.00000 0.00000
 977 119.94267 105.50000 0.00000 0.00000
 978 64.96894 126.70000 0.00000 0.00000
 979 89.95700 105.80000 0.00000 0.00000
 980 59.97133 134.30000 0.00000 0.00000
 981 99.95222 111.00000 0.00000 0.00000
 982 99.95222 113.00000 0.00000 0.00000
 983 159.92355 117.40000 0.00000 0.00000
 984 119.94267 115.70000 0.00000 0.00000
 985 109.94744 117.20000 0.00000 0.00000
 986 66.13839 118.84000 0.00000 0.00000
 987 38.98137 124.80000 0.00000 0.00000
 988 69.96656 127.50000 0.00000 0.00000
 989 66.85804 113.34000 0.00000 0.00000
 990 39.98089 122.20000 0.00000 0.00000
 991 144.93072 108.00000 0.00000 0.00000
 992 57.16268 125.57000 0.00000 0.00000
 993 31.98471 126.00000 24.98806 2.14000
 994 74.96417 104.40000 0.00000 0.00000
 995 64.96894 127.80000 0.00000 0.00000
 996 44.97850 127.00000 0.00000 0.00000
 997 69.96656 109.00000 0.00000 0.00000
 998 31.98471 117.80000 0.00000 0.00000
 999 63.96942 127.50000 0.00000 0.00000
 1000 54.97372 125.00000 0.00000 0.00000
 1001 24.98806 119.50000 19.99044 2.14000
 1002 44.97850 124.00000 0.00000 0.00000
 1003 29.98567 118.00000 0.00000 0.00000
 1004 89.95700 107.20000 0.00000 0.00000
 1005 32.98423 126.40000 0.00000 0.00000
 1006 42.47969 126.40000 0.00000 0.00000
 1007 34.98328 120.00000 0.00000 0.00000
 1008 35.98280 120.00000 0.00000 0.00000
 1009 35.98280 120.00000 0.00000 0.00000
 1010 24.98806 120.00000 0.00000 0.00000
 1011 44.97850 119.00000 0.00000 0.00000
 1012 62.48013 126.95000 0.00000 0.00000
 1013 59.97133 120.00000 0.00000 0.00000
 1014 69.71667 115.90000 0.00000 0.00000
 1015 44.97850 120.00000 0.00000 0.00000
 1016 44.97850 119.00000 0.00000 0.00000
 1017 44.97850 119.80000 0.00000 0.00000
 1018 44.97850 120.00000 0.00000 0.00000
 1019 31.98471 120.00000 0.00000 0.00000
 1020 39.98089 120.00000 34.98328 2.41620
 1021 39.98089 119.00000 34.98328 2.41620
 1022 39.98089 120.00000 34.98328 2.41620
 1023 39.98089 115.50000 34.98328 2.41620
 1024 39.98089 119.00000 34.98328 2.41620
 1025 39.98089 120.00000 0.00000 0.00000
 1026 49.97611 120.00000 0.00000 0.00000
 1027 45.77812 120.00000 0.00000 0.00000
 1028 45.77812 120.00000 0.00000 0.00000
 1029 45.77812 120.00000 0.00000 0.00000
 1030 45.77812 120.00000 0.00000 0.00000
 1031 45.77812 120.00000 0.00000 0.00000
 1032 45.77812 120.00000 0.00000 0.00000
 1033 45.77812 120.00000 0.00000 0.00000
 1034 79.96178 125.50000 0.00000 0.00000
 1035 19.99044 120.00000 0.00000 0.00000
 1036 38.98137 121.20000 42.97946 2.19000
 1037 59.97133 121.00000 0.00000 0.00000
 1038 19.99044 124.00000 0.00000 0.00000
 1039 124.94028 120.00000 0.00000 0.00000
 1040 19.99044 124.00000 0.00000 0.00000
 1041 99.95222 121.40000 0.00000 0.00000
 1042 39.98089 120.00000 34.98328 2.41620
 1043 39.98089 120.00000 34.98328 2.41620
 1044 59.97133 121.00000 0.00000 0.00000
 1045 41.97993 120.00000 0.00000 0.00000
 1046 39.98089 120.00000 0.00000 0.00000
 1047 47.97707 122.00000 0.00000 0.00000
 1048 109.94744 120.00000 0.00000 0.00000
 1049 74.96417 120.00000 0.00000 0.00000
 1050 45.17840 120.00000 0.00000 0.00000
 1051 39.98089 120.00000 0.00000 0.00000
 1052 39.98089 120.00000 0.00000 0.00000
 1053 39.98089 120.00000 0.00000 0.00000
 1054 9.99522 122.30000 0.00000 0.00000
 1055 34.98328 119.00000 0.00000 0.00000
 1056 59.97133 120.00000 0.00000 0.00000
 1057 44.97850 120.00000 0.00000 0.00000
 1058 44.97850 120.00000 0.00000 0.00000
 1059 41.97993 120.00000 0.00000 0.00000
 1060 29.98567 120.00000 21.98949 2.15250
 1061 29.98567 120.00000 21.98949 2.15250
 1062 19.99044 121.00000 21.98949 2.15250
 1063 17.99140 120.00000 21.98949 2.15250
 1064 19.99044 123.40000 0.00000 0.00000
 1065 45.17840 120.00000 0.00000 0.00000
 1066 29.98567 120.00000 21.98949 2.15250
 1067 37.98184 120.10000 0.00000 0.00000
 1068 39.98089 117.00000 34.98328 2.41620
 1069 39.98089 119.00000 34.98328 2.41620
 1070 45.77812 120.00000 0.00000 0.00000
 1071 45.77812 120.00000 0.00000 0.00000
 1072 19.99044 124.00000 0.00000 0.00000
 1073 39.98089 120.00000 34.98328 2.41620
 1074 45.17840 120.00000 0.00000 0.00000
 1075 29.98567 121.50000 21.98949 2.15250
 1076 19.99044 124.00000 0.00000 0.00000
 1077 29.98567 120.00000 0.00000 0.00000
 1078 29.98567 120.00000 0.00000 0.00000
 1079 19.99044 119.00000 0.00000 0.00000
 1080 59.97133 121.00000 0.00000 0.00000
 1081 45.17840 120.00000 0.00000 0.00000
 1082 39.98089 120.00000 0.00000 0.00000
 1083 59.97133 120.00000 0.00000 0.00000
 1084 29.98567 120.00000 21.98949 2.14600
 1085 29.98567 121.50000 0.00000 0.00000
 1086 45.77812 122.30000 0.00000 0.00000
 1087 45.77812 122.30000 0.00000 0.00000
 1088 34.98328 113.00000 0.00000 0.00000
 1089 44.97850 120.00000 0.00000 0.00000
 1090 29.98567 116.00000 34.98328 2.10000
 1091 32.98423 115.00000 0.00000 0.00000
 1092 45.17840 120.00000 0.00000 0.00000
 1093 29.98567 116.00000 34.98328 2.10000
 1094 29.98567 118.60000 0.00000 0.00000
 1095 9.99522 131.80000 0.00000 0.00000
 1096 49.97611 120.00000 0.00000 0.00000
 1097 64.96894 122.20000 0.00000 0.00000
 1098 39.98089 121.00000 0.00000 0.00000
 1099 119.94267 122.30000 0.00000 0.00000
 1100 22.98901 116.10000 0.00000 0.00000
 1101 29.98567 118.00000 0.00000 0.00000
 1102 39.98089 119.70000 0.00000 0.00000
 1103 39.98089 118.00000 0.00000 0.00000
 1104 119.94267 116.70000 0.00000 0.00000
 1105 84.95939 117.80000 0.00000 0.00000
 1106 39.98089 121.00000 0.00000 0.00000
 1107 39.98089 124.20000 0.00000 0.00000
 1108 39.98089 123.00000 0.00000 0.00000
 1109 45.77812 125.80000 0.00000 0.00000
 1110 39.98089 124.20000 0.00000 0.00000
 1111 84.95939 122.90000 0.00000 0.00000
 1112 19.99044 121.00000 0.00000 0.00000
 1113 84.95939 122.90000 0.00000 0.00000
 1114 119.94267 120.30000 0.00000 0.00000
 1115 50.97563 123.80000 0.00000 0.00000
 1116 9.99522 119.30000 0.00000 0.00000
 1117 41.97993 119.00000 0.00000 0.00000
 1118 79.96178 120.50000 0.00000 0.00000
 1119 4.44787 116.76000 0.00000 0.00000
 1120 119.94267 122.30000 0.00000 0.00000
 1121 42.97946 121.20000 0.00000 0.00000
 1122 60.97086 119.10000 0.00000 0.00000
 1123 41.97993 117.50000 0.00000 0.00000
 1124 37.98184 118.70000 0.00000 0.00000
 1125 42.73957 109.62000 0.00000 0.00000
 1126 109.94744 123.00000 0.00000 0.00000
 1127 48.97659 117.50000 0.00000 0.00000
 1128 29.98567 120.30000 0.00000 0.00000
 1129 45.97802 118.50000 0.00000 0.00000
 1130 45.97802 118.90000 0.00000 0.00000
 1131 24.46830 120.35000 0.00000 0.00000
 1132 37.98184 120.10000 0.00000 0.00000
 1133 22.98901 116.10000 0.00000 0.00000
 1134 29.98567 118.00000 0.00000 0.00000
 1135 41.97993 119.00000 0.00000 0.00000
 1136 79.96178 120.50000 0.00000 0.00000
 1137 49.97611 124.00000 0.00000 0.00000
 1138 43.97898 115.00000 0.00000 0.00000
 1139 79.96178 117.50000 0.00000 0.00000
 1140 88.95748 121.00000 89.95700 2.30800
 1141 23.48877 120.00000 34.98328 2.10000
 1142 50.47587 118.50000 0.00000 0.00000
 1143 43.97898 118.10000 0.00000 0.00000
 1144 58.97181 111.90000 0.00000 0.00000
 1145 58.97181 113.40000 0.00000 0.00000
 1146 37.98184 125.10000 0.00000 0.00000
 1147 9.99522 120.80000 0.00000 0.00000
 1148 69.96656 113.50000 0.00000 0.00000
 1149 79.96178 117.80000 0.00000 0.00000
 1150 69.96656 115.70000 0.00000 0.00000
 1151 99.95222 124.60000 0.00000 0.00000
 1152 9.99522 121.50000 0.00000 0.00000
 1153 51.97516 123.50000 0.00000 0.00000
 1154 69.96656 107.80000 0.00000 0.00000
 1155 69.96656 108.00000 0.00000 0.00000
 1156 49.97611 124.70000 0.00000 0.00000
 1157 60.97086 115.60000 0.00000 0.00000
 1158 79.96178 125.00000 0.00000 0.00000
 1159 49.97611 114.00000 0.00000 0.00000
 1160 49.97611 116.80000 0.00000 0.00000
 1161 49.97611 114.00000 0.00000 0.00000
 1162 129.93789 119.40000 0.00000 0.00000
 1163 55.97324 123.00000 0.00000 0.00000
 1164 64.96894 122.50000 0.00000 0.00000
 1165 129.93789 123.80000 0.00000 0.00000
 1166 69.96656 123.70000 0.00000 0.00000
 1167 129.93789 119.70000 0.00000 0.00000
 1168 55.97324 123.00000 0.00000 0.00000
 1169 96.95366 122.10000 0.00000 0.00000
 1170 19.99044 113.90000 0.00000 0.00000
 1171 47.97707 119.00000 59.97133 2.58300
 1172 59.97133 110.00000 50.97563 2.56000
 1173 39.98089 120.00000 0.00000 0.00000
 1174 19.99044 124.00000 0.00000 0.00000
 1175 33.47400 115.66000 0.00000 0.00000
 1176 19.99044 128.00000 0.00000 0.00000
 1177 39.98089 120.00000 34.98328 2.41620
 1178 59.97133 118.50000 0.00000 0.00000
 1179 62.96990 121.00000 0.00000 0.00000
 1180 47.97707 124.50000 42.97946 2.51200
 1181 51.97516 120.30000 34.98328 2.36000
 1182 79.96178 120.20000 0.00000 0.00000
 1183 84.95939 119.30000 0.00000 0.00000
 1184 39.98089 118.00000 34.98328 2.24200
 1185 80.96130 118.40000 0.00000 0.00000
 1186 66.96799 120.70000 0.00000 0.00000
 1187 60.97086 119.00000 0.00000 0.00000
 1188 47.97707 124.50000 42.97946 2.51200
 1189 51.97516 119.00000 34.98328 2.36000
 1190 79.96178 120.20000 0.00000 0.00000
 1191 59.97133 110.70000 0.00000 0.00000
 1192 34.98328 126.00000 14.99283 2.38000
 1193 39.98089 118.00000 34.98328 2.24200
 1194 49.97611 118.60000 0.00000 0.00000
 1195 39.98089 120.00000 0.00000 0.00000
 1196 60.97086 119.00000 0.00000 0.00000
 1197 63.46966 116.00000 0.00000 0.00000
 1198 62.96990 121.00000 31.98471 2.48300
 1199 89.95700 116.80000 0.00000 0.00000
 1200 40.98041 124.00000 84.95939 2.56200
 1201 49.97611 118.00000 39.98089 2.27500
 1202 69.96656 122.00000 0.00000 0.00000
 1203 47.97707 112.60000 0.00000 0.00000
 1204 39.98089 116.00000 0.00000 0.00000
 1205 39.98089 120.00000 34.98328 2.41620
 1206 77.96273 119.70000 0.00000 0.00000
 1207 69.96656 122.20000 0.00000 0.00000
 1208 94.95461 115.40000 0.00000 0.00000
 1209 24.86811 119.60000 0.00000 0.00000
 1210 72.96512 120.00000 0.00000 0.00000
 1211 19.99044 121.80000 0.00000 0.00000
 1212 79.96178 119.00000 0.00000 0.00000
 1213 59.97133 128.00000 0.00000 0.00000
 1214 69.96656 125.00000 0.00000 0.00000
 1215 34.98328 120.00000 9.99522 2.25000
 1216 43.97898 122.70000 34.98328 2.41620
 1217 94.95461 122.40000 0.00000 0.00000
 1218 77.96273 120.00000 0.00000 0.00000
 1219 65.96847 121.70000 0.00000 0.00000
 1220 53.97420 116.00000 0.00000 0.00000
 1221 37.98184 116.00000 0.00000 0.00000
 1222 79.96178 119.00000 0.00000 0.00000
 1223 39.98089 122.50000 34.98328 2.41620
 1224 39.98089 122.50000 34.98328 2.41620
 1225 39.98089 122.50000 34.98328 2.41620
 1226 39.98089 122.50000 34.98328 2.41620
 1227 59.97133 118.75000 0.00000 0.00000
 1228 39.98089 122.50000 34.98328 2.41620
 1229 59.97133 118.75000 0.00000 0.00000
 1230 59.97133 118.75000 0.00000 0.00000
 1231 59.97133 118.75000 0.00000 0.00000
 1232 39.98089 120.00000 0.00000 0.00000
 1233 39.98089 120.00000 0.00000 0.00000
 1234 39.98089 120.00000 0.00000 0.00000
 1235 49.97611 120.00000 0.00000 0.00000
 1236 57.97229 126.80000 0.00000 0.00000
 1237 49.97611 120.00000 0.00000 0.00000
 1238 39.98089 120.00000 0.00000 0.00000
 1239 39.98089 120.00000 0.00000 0.00000
 1240 39.98089 120.00000 0.00000 0.00000
 1241 54.97372 110.00000 0.00000 0.00000
 1242 43.97898 113.20000 0.00000 0.00000
 1243 29.98567 128.60000 0.00000 0.00000
 1244 89.95700 129.30000 0.00000 0.00000
 1245 36.98232 115.70000 0.00000 0.00000
 1246 31.98471 115.00000 0.00000 0.00000
 1247 39.98089 125.00000 0.00000 0.00000
 1248 19.99044 107.00000 0.00000 0.00000
 1249 39.98089 125.00000 0.00000 0.00000
 1250 19.99044 107.00000 0.00000 0.00000
 1251 129.93789 132.00000 0.00000 0.00000
 1252 129.93789 132.00000 0.00000 0.00000
 1253 129.93789 132.00000 0.00000 0.00000
 1254 84.95939 108.00000 0.00000 0.00000
 1255 89.95700 109.20000 0.00000 0.00000
 1256 59.97133 134.10000 0.00000 0.00000
 1257 89.95700 105.90000 0.00000 0.00000
 1258 49.97611 120.00000 0.00000 0.00000
 1259 49.97611 120.00000 0.00000 0.00000
 1260 49.97611 130.00000 0.00000 0.00000
 1261 59.97133 130.00000 0.00000 0.00000
 1262 129.93789 130.00000 0.00000 0.00000
 1263 129.93789 132.60000 0.00000 0.00000
 1264 129.93789 130.00000 0.00000 0.00000
 1265 49.97611 130.00000 0.00000 0.00000
 1266 79.96178 118.80000 0.00000 0.00000
 1267 34.98328 130.70000 0.00000 0.00000
 1268 99.95222 129.40000 0.00000 0.00000
 1269 49.97611 125.30000 0.00000 0.00000
 1270 44.97850 123.70000 0.00000 0.00000
 1271 34.98328 130.70000 0.00000 0.00000
 1272 69.96656 119.60000 0.00000 0.00000
 1273 124.94028 129.00000 0.00000 0.00000
 1274 84.95939 126.50000 0.00000 0.00000
 1275 59.97133 121.00000 0.00000 0.00000
 1276 99.95222 129.00000 0.00000 0.00000
 1277 49.97611 120.00000 0.00000 0.00000
 1278 109.94744 110.00000 0.00000 0.00000
 1279 99.95222 105.70000 0.00000 0.00000
 1280 69.96656 110.00000 0.00000 0.00000
 1281 109.94744 110.00000 0.00000 0.00000
 1282 99.95222 110.00000 0.00000 0.00000
 1283 99.95222 105.70000 0.00000 0.00000
 1284 71.96560 106.90000 0.00000 0.00000
 1285 69.96656 110.00000 0.00000 0.00000
 1286 58.97181 127.40000 0.00000 0.00000
 1287 59.97133 127.40000 0.00000 0.00000
 1288 99.95222 109.30000 0.00000 0.00000
 1289 109.94744 110.60000 0.00000 0.00000
 1290 79.96178 114.70000 0.00000 0.00000
 1291 69.96656 116.30000 0.00000 0.00000
 1292 99.95222 109.30000 0.00000 0.00000
 1293 19.99044 131.00000 0.00000 0.00000
 1294 19.99044 122.60000 0.00000 0.00000
 1295 139.93311 112.60000 0.00000 0.00000
 1296 99.95222 126.90000 0.00000 0.00000
 1297 99.95222 126.90000 0.00000 0.00000
 1298 71.96560 126.90000 0.00000 0.00000
 1299 67.96751 116.40000 0.00000 0.00000
 1300 29.98567 122.70000 0.00000 0.00000
 1301 109.94744 109.50000 0.00000 0.00000
 1302 29.98567 127.80000 0.00000 0.00000
 1303 31.98471 112.20000 0.00000 0.00000
 1304 31.98471 112.20000 0.00000 0.00000
 1305 31.98471 112.20000 0.00000 0.00000
 1306 31.98471 112.20000 0.00000 0.00000
 1307 31.98471 112.20000 0.00000 0.00000
 1308 31.98471 112.20000 0.00000 0.00000
 1309 31.98471 112.20000 0.00000 0.00000
 1310 51.97516 108.00000 0.00000 0.00000
 1311 44.97850 109.00000 0.00000 0.00000
 1312 44.97850 109.00000 0.00000 0.00000
 1313 75.66383 110.10000 0.00000 0.00000
 1314 65.00892 103.43000 0.00000 0.00000
 1315 51.77525 107.50000 0.00000 0.00000
 1316 58.32212 113.50000 11.15467 2.56100
 1317 58.32212 113.50000 11.15467 2.56100
 1318 58.32212 113.50000 11.15467 2.56100
 1319 75.66383 110.10000 0.00000 0.00000
 1320 58.32212 113.50000 11.15467 2.56100
 1321 58.32212 113.50000 11.15467 2.56100
 1322 45.47826 114.50000 0.00000 0.00000
 1323 58.32212 113.50000 11.15467 2.56100
 1324 44.97850 111.50000 0.00000 0.00000
 1325 75.66383 110.10000 0.00000 0.00000
 1326 75.66383 110.10000 0.00000 0.00000
 1327 75.66383 110.10000 0.00000 0.00000
 1328 63.89946 109.23000 0.00000 0.00000
 1329 96.95366 111.20000 0.00000 0.00000
 1330 97.95318 111.20000 0.00000 0.00000
 1331 70.45632 107.00000 0.00000 0.00000
 1332 44.97850 116.50000 0.00000 0.00000
 1333 61.39065 112.28000 0.00000 0.00000
 1334 94.95461 109.00000 0.00000 0.00000
 1335 89.95700 110.50000 0.00000 0.00000
 1336 49.97611 115.00000 29.98567 2.35700
 1337 41.97993 112.00000 29.98567 2.35700
 1338 28.48638 104.37000 22.60920 2.93050
 1339 41.97993 112.00000 29.98567 2.35700
 1340 41.97993 112.00000 29.98567 2.35700
 1341 117.94362 107.00000 29.98567 2.15500
 1342 29.98567 114.00000 0.00000 0.00000
 1343 31.98471 112.20000 0.00000 0.00000
 1344 44.97850 111.50000 0.00000 0.00000
 1345 42.40973 106.78000 0.00000 0.00000
 1346 51.97516 108.00000 0.00000 0.00000
 1347 51.97516 108.00000 0.00000 0.00000
 1348 51.97516 108.00000 0.00000 0.00000
 1349 51.97516 108.00000 0.00000 0.00000
 1350 49.97611 107.00000 0.00000 0.00000
 1351 49.97611 107.00000 0.00000 0.00000
 1352 111.94649 111.00000 0.00000 0.00000
 1353 51.58534 109.77000 0.00000 0.00000
 1354 49.97611 109.50000 0.00000 0.00000
 1355 40.72054 113.99000 0.00000 0.00000
 1356 39.98089 107.50000 0.00000 0.00000
 1357 39.98089 107.50000 0.00000 0.00000
 1358 51.97516 108.00000 0.00000 0.00000
 1359 51.97516 108.00000 0.00000 0.00000
 1360 51.97516 108.00000 0.00000 0.00000
 1361 49.97611 107.00000 0.00000 0.00000
 1362 49.97611 107.00000 0.00000 0.00000
 1363 43.67912 110.00000 0.00000 0.00000
 1364 109.94744 106.70000 0.00000 0.00000
 1365 49.97611 109.50000 0.00000 0.00000
 1366 45.41829 124.90000 0.00000 0.00000
 1367 51.77525 107.50000 0.00000 0.00000
 1368 57.97229 104.50000 0.00000 0.00000
 1369 51.97516 108.00000 0.00000 0.00000
 1370 51.97516 108.00000 0.00000 0.00000
 1371 51.97516 108.00000 0.00000 0.00000
 1372 49.97611 107.00000 0.00000 0.00000
 1373 49.97611 107.00000 0.00000 0.00000
 1374 44.97850 109.00000 0.00000 0.00000
 1375 44.97850 109.00000 0.00000 0.00000
 1376 79.96178 107.00000 0.00000 0.00000
 1377 56.95278 105.35000 0.00000 0.00000
 1378 49.97611 109.50000 0.00000 0.00000
 1379 51.97516 108.00000 0.00000 0.00000
 1380 51.97516 108.00000 0.00000 0.00000
 1381 51.97516 108.00000 0.00000 0.00000
 1382 49.97611 107.00000 0.00000 0.00000
 1383 49.97611 109.50000 0.00000 0.00000
 1384 111.94649 111.00000 0.00000 0.00000
 1385 129.93789 111.00000 0.00000 0.00000
 1386 49.97611 109.50000 0.00000 0.00000
 1387 58.32212 114.00000 0.00000 0.00000
 1388 74.61433 107.75000 0.00000 0.00000
 1389 54.97372 109.50000 0.00000 0.00000
 1390 58.97181 111.00000 0.00000 0.00000
 1391 58.97181 111.00000 0.00000 0.00000
 1392 58.97181 111.00000 0.00000 0.00000
 1393 54.53393 107.92000 0.00000 0.00000
 1394 54.97372 109.50000 0.00000 0.00000
 1395 51.77525 107.50000 0.00000 0.00000
 1396 51.77525 107.50000 0.00000 0.00000
 1397 51.77525 107.50000 0.00000 0.00000
 1398 81.96082 112.80000 0.00000 0.00000
 1399 42.97946 111.00000 0.00000 0.00000
 1400 81.96082 112.80000 0.00000 0.00000
 1401 42.97946 111.00000 0.00000 0.00000
 1402 51.97516 108.00000 0.00000 0.00000
 1403 58.32212 113.50000 11.15467 2.56100
 1404 58.32212 113.50000 11.15467 2.56100
 1405 75.66383 110.10000 0.00000 0.00000
 1406 34.58347 110.10000 22.51923 2.17900
 1407 53.32451 108.65000 7.95620 2.49260
 1408 53.32451 108.65000 7.95620 2.49260
 1409 34.58347 110.10000 22.51923 2.17900
 1410 53.32451 111.00000 7.99618 2.56100
 1411 53.32451 111.00000 7.99618 2.56100
 1412 53.32451 108.50000 7.99618 2.56100
 1413 53.32451 103.70000 7.99618 2.56100
 1414 69.96656 113.50000 0.00000 0.00000
 1415 72.96512 111.20000 0.00000 0.00000
 1416 114.94505 109.70000 0.00000 0.00000
 1417 75.66383 110.10000 0.00000 0.00000
 1418 34.48352 110.10000 22.51923 2.17900
 1419 53.32451 111.00000 7.99618 2.56100
 1420 53.32451 108.50000 7.99618 2.56100
 1421 75.66383 112.10000 0.00000 0.00000
 1422 34.48352 110.10000 22.51923 2.17900
 1423 58.32212 113.50000 11.15467 2.56100
 1424 53.07463 111.98000 7.99618 2.50150
 1425 58.32212 110.50000 11.15467 2.56100
 1426 53.32451 114.00000 7.99618 2.56100
 1427 53.32451 111.00000 7.99618 2.56100
 1428 53.32451 103.70000 7.99618 2.56100
 1429 69.96656 113.50000 0.00000 0.00000
 1430 69.96656 108.00000 0.00000 0.00000
 1431 69.96656 113.50000 0.00000 0.00000
 1432 43.67912 112.20000 0.00000 0.00000
 1433 114.94505 109.70000 0.00000 0.00000
 1434 114.94505 109.70000 0.00000 0.00000
 1435 75.66383 110.00000 0.00000 0.00000
 1436 44.97850 111.50000 0.00000 0.00000
 1437 57.97229 114.50000 0.00000 0.00000
 1438 34.48352 110.10000 22.51923 2.17900
 1439 53.07463 111.98000 7.99618 2.50150
 1440 34.58347 110.10000 22.51923 2.17900
 1441 53.32451 108.50000 7.99618 2.56100
 1442 69.96656 113.50000 0.00000 0.00000
 1443 75.66383 112.10000 0.00000 0.00000
 1444 26.48734 111.80000 22.51923 2.17900
 1445 53.32451 114.00000 7.99618 2.56100
 1446 53.32451 108.50000 7.99618 2.56100
 1447 69.96656 113.50000 0.00000 0.00000
 1448 69.96656 113.50000 0.00000 0.00000
 1449 72.96512 113.20000 0.00000 0.00000
 1450 44.97850 111.50000 0.00000 0.00000
 1451 75.66383 110.10000 0.00000 0.00000
 1452 114.94505 109.70000 0.00000 0.00000
 1453 75.66383 110.10000 0.00000 0.00000
 1454 57.97229 114.50000 0.00000 0.00000
 1455 87.95796 111.20000 0.00000 0.00000
 1456 74.96417 111.00000 0.00000 0.00000
 1457 34.48352 110.10000 22.51923 2.17900
 1458 34.58347 110.10000 22.51923 2.17900
 1459 75.66383 110.10000 0.00000 0.00000
 1460 34.48352 110.10000 22.51923 2.17900
 1461 47.97707 108.00000 0.00000 0.00000
 1462 47.97707 108.00000 0.00000 0.00000
 1463 47.97707 108.00000 0.00000 0.00000
 1464 32.38452 109.50000 49.97611 2.14000
 1465 89.95700 112.00000 0.00000 0.00000
 1466 59.97133 109.50000 0.00000 0.00000
 1467 59.97133 109.50000 0.00000 0.00000
 1468 74.41443 112.79000 0.00000 0.00000
 1469 59.97133 109.50000 0.00000 0.00000
 1470 100.45198 117.15000 0.00000 0.00000
 1471 111.84654 111.00000 99.95222 2.35000
 1472 68.00749 115.68000 0.00000 0.00000
 1473 45.87807 108.89000 0.00000 0.00000
 1474 65.86851 117.80000 0.00000 0.00000
 1475 44.97850 109.50000 0.00000 0.00000
 1476 46.07797 111.30000 0.00000 0.00000
 1477 94.95461 109.00000 0.00000 0.00000
 1478 43.97898 108.50000 0.00000 0.00000
 1479 94.95461 110.00000 0.00000 0.00000
 1480 35.98280 107.00000 0.00000 0.00000
 1481 89.95700 117.00000 19.99044 2.30000
 1482 89.95700 117.00000 19.99044 2.30000
 1483 49.97611 115.00000 29.98567 2.35700
 1484 49.97611 112.00000 29.98567 2.35700
 1485 31.98471 112.00000 2.99857 2.16800
 1486 49.97611 112.00000 29.98567 2.35700
 1487 31.98471 112.00000 2.99857 2.16800
 1488 49.97611 122.00000 29.98567 2.35700
 1489 49.97611 122.00000 29.98567 2.35700
 1490 49.97611 111.57000 29.98567 2.60180
 1491 46.05798 110.60000 0.00000 0.00000
 1492 149.92833 107.00000 9.99522 2.17000
 1493 41.87998 108.89000 4.99761 1.98000
 1494 29.98567 114.00000 0.00000 0.00000
 1495 45.87807 112.16000 34.98328 2.46440
 1496 44.97850 111.50000 0.00000 0.00000
 1497 51.97516 108.00000 0.00000 0.00000
 1498 51.97516 108.00000 0.00000 0.00000
 1499 51.97516 108.00000 0.00000 0.00000
 1500 43.67912 110.00000 0.00000 0.00000
 1501 43.67912 110.00000 0.00000 0.00000
 1502 49.97611 109.50000 0.00000 0.00000
 1503 50.41590 116.42000 0.00000 0.00000
 1504 51.77525 107.50000 0.00000 0.00000
 1505 46.23790 111.36000 0.00000 0.00000
 1506 51.97516 108.00000 0.00000 0.00000
 1507 51.97516 108.00000 0.00000 0.00000
 1508 51.97516 108.00000 0.00000 0.00000
 1509 51.97516 108.00000 0.00000 0.00000
 1510 43.67912 110.00000 0.00000 0.00000
 1511 49.97611 109.50000 0.00000 0.00000
 1512 45.90806 109.10000 35.68294 2.43770
 1513 54.97372 109.50000 0.00000 0.00000
 1514 67.65766 108.76000 0.00000 0.00000
 1515 34.58347 110.10000 22.51923 2.17900
 1516 67.66765 110.00000 0.00000 0.00000
 1517 34.48352 110.10000 22.51923 2.17900
 1518 58.32212 113.50000 11.15467 2.56100
 1519 58.32212 113.50000 11.15467 2.56100
 1520 67.66765 110.00000 0.00000 0.00000
 1521 39.98089 110.00000 0.00000 0.00000
 1522 39.98089 110.00000 0.00000 0.00000
 1523 67.66765 110.00000 0.00000 0.00000
 1524 34.48352 110.10000 22.51923 2.17900
 1525 33.41403 110.10000 22.51923 2.17900
 1526 53.32451 114.00000 7.99618 2.56100
 1527 67.66765 110.00000 0.00000 0.00000
 1528 39.98089 110.00000 0.00000 0.00000
 1529 67.66765 110.00000 0.00000 0.00000
 1530 67.66765 110.00000 0.00000 0.00000
 1531 34.48352 110.10000 22.51923 2.17900
 1532 33.41403 110.10000 22.51923 2.17900
 1533 67.66765 110.00000 0.00000 0.00000
 1534 34.58347 110.10000 22.51923 2.17900
 1535 41.97993 110.10000 0.00000 0.00000
 1536 76.43346 112.54000 0.00000 0.00000
 1537 58.06225 119.20000 0.00000 0.00000
 1538 32.38452 109.50000 49.97611 2.13000
 1539 39.98089 109.50000 26.98710 2.13000
 1540 44.97850 102.30000 34.98328 2.10100
 1541 60.40113 112.97000 0.00000 0.00000
 1542 51.47539 107.50000 0.00000 0.00000
 1543 46.07797 111.30000 0.00000 0.00000
 1544 56.97277 112.00000 0.00000 0.00000
 1545 56.97277 112.00000 0.00000 0.00000
 1546 49.97611 109.00000 0.00000 0.00000
 1547 69.96656 113.50000 0.00000 0.00000
 1548 69.96656 120.00000 0.00000 0.00000
 1549 46.97754 111.50000 0.00000 0.00000
 1550 29.98567 114.00000 0.00000 0.00000
 1551 124.94028 108.00000 0.00000 0.00000
 1552 124.94028 108.00000 0.00000 0.00000
 1553 31.98471 112.20000 0.00000 0.00000
 1554 31.98471 112.20000 0.00000 0.00000
 1555 31.98471 112.20000 0.00000 0.00000
 1556 77.96273 110.00000 0.00000 0.00000
 1557 75.66383 110.10000 0.00000 0.00000
 1558 46.97754 109.80000 0.00000 0.00000
 1559 44.97850 111.50000 0.00000 0.00000
 1560 31.98471 112.20000 0.00000 0.00000
 1561 31.98471 112.20000 0.00000 0.00000
 1562 75.66383 110.10000 0.00000 0.00000
 1563 19.99044 99.00000 0.00000 0.00000
 1564 44.97850 111.50000 0.00000 0.00000
 1565 31.98471 112.20000 0.00000 0.00000
 1566 31.98471 112.20000 0.00000 0.00000
 1567 75.66383 110.10000 0.00000 0.00000
 1568 19.99044 99.00000 0.00000 0.00000
 1569 44.97850 111.50000 0.00000 0.00000
 1570 51.77525 107.50000 0.00000 0.00000
 1571 51.77525 107.50000 0.00000 0.00000
 1572 51.97516 108.00000 0.00000 0.00000
 1573 51.97516 108.00000 0.00000 0.00000
 1574 51.97516 108.00000 0.00000 0.00000
 1575 51.97516 108.00000 0.00000 0.00000
 1576 41.01040 108.18000 0.00000 0.00000
 1577 49.97611 107.00000 0.00000 0.00000
 1578 49.97611 107.00000 0.00000 0.00000
 1579 49.97611 107.00000 0.00000 0.00000
 1580 49.47635 110.05000 0.00000 0.00000
 1581 32.98423 109.50000 29.98567 2.16300
 1582 39.11130 112.79000 0.00000 0.00000
 1583 51.77525 107.50000 0.00000 0.00000
 1584 51.77525 107.50000 0.00000 0.00000
 1585 51.97516 108.00000 0.00000 0.00000
 1586 51.97516 108.00000 0.00000 0.00000
 1587 51.97516 108.00000 0.00000 0.00000
 1588 51.97516 108.00000 0.00000 0.00000
 1589 49.97611 107.00000 0.00000 0.00000
 1590 43.67912 110.00000 0.00000 0.00000
 1591 43.67912 110.00000 0.00000 0.00000
 1592 69.96656 109.00000 0.00000 0.00000
 1593 32.98423 109.50000 29.98567 2.16300
 1594 51.77525 107.50000 0.00000 0.00000
 1595 51.77525 107.50000 0.00000 0.00000
 1596 51.97516 108.00000 0.00000 0.00000
 1597 51.97516 108.00000 0.00000 0.00000
 1598 51.97516 108.00000 0.00000 0.00000
 1599 51.97516 108.00000 0.00000 0.00000
 1600 49.97611 107.00000 0.00000 0.00000
 1601 62.96990 109.00000 0.00000 0.00000
 1602 44.97850 109.00000 0.00000 0.00000
 1603 28.16654 99.56000 10.30508 2.35050
 1604 49.97611 109.50000 0.00000 0.00000
 1605 32.98423 109.50000 29.98567 2.16300
 1606 59.97133 113.80000 0.00000 0.00000
 1607 49.97611 111.05000 0.00000 0.00000
 1608 64.96894 111.82000 0.00000 0.00000
 1609 32.98423 109.50000 29.98567 2.16300
 1610 59.97133 113.80000 0.00000 0.00000
 1611 59.97133 111.50000 0.00000 0.00000
 1612 51.12556 107.23000 0.00000 0.00000
 1613 49.97611 109.50000 0.00000 0.00000
 1614 58.32212 114.00000 0.00000 0.00000
 1615 51.77525 107.50000 0.00000 0.00000
 1616 58.32212 114.00000 0.00000 0.00000
 1617 58.32212 114.00000 0.00000 0.00000
 1618 58.32212 114.00000 0.00000 0.00000
 1619 58.32212 114.00000 0.00000 0.00000
 1620 56.97277 107.00000 0.00000 0.00000
 1621 69.96656 111.50000 0.00000 0.00000
 1622 69.96656 110.00000 0.00000 0.00000
 1623 47.76717 108.56000 0.75964 2.71430
 1624 54.97372 109.50000 0.00000 0.00000
 1625 57.97229 111.00000 0.00000 0.00000
 1626 49.97611 109.50000 0.00000 0.00000
 1627 58.97181 111.00000 0.00000 0.00000
 1628 58.97181 111.00000 0.00000 0.00000
 1629 52.97468 115.20000 0.00000 0.00000
 1630 54.97372 109.50000 0.00000 0.00000
 1631 51.77525 107.50000 0.00000 0.00000
 1632 51.77525 107.50000 0.00000 0.00000
 1633 51.77525 107.50000 0.00000 0.00000
 1634 51.77525 107.50000 0.00000 0.00000
 1635 51.77525 107.50000 0.00000 0.00000
 1636 52.97468 115.20000 0.00000 0.00000
 1637 72.96512 109.00000 0.00000 0.00000
 1638 75.66383 110.10000 0.00000 0.00000
 1639 75.66383 110.10000 0.00000 0.00000
 1640 75.66383 110.10000 0.00000 0.00000
 1641 89.95700 111.00000 19.99044 2.30000
 1642 89.95700 111.00000 19.99044 2.30000
 1643 54.24407 108.24000 0.00000 0.00000
 1644 69.53676 104.74000 1.65921 2.70120
 1645 49.27645 107.50000 0.00000 0.00000
 1646 77.96273 107.00000 0.00000 0.00000
 1647 77.96273 107.00000 0.00000 0.00000
 1648 75.66383 109.70000 0.00000 0.00000
 1649 49.27645 107.50000 0.00000 0.00000
 1650 58.32212 113.50000 11.15467 2.56100
 1651 58.32212 113.50000 11.15467 2.56100
 1652 65.31878 113.50000 0.00000 0.00000
 1653 75.66383 110.10000 0.00000 0.00000
 1654 44.97850 105.00000 0.00000 0.00000
 1655 26.48734 110.10000 22.51923 2.17900
 1656 75.66383 110.10000 0.00000 0.00000
 1657 34.58347 110.10000 22.51923 2.17900
 1658 58.32212 113.50000 11.15467 2.56100
 1659 58.32212 113.50000 11.15467 2.56100
 1660 58.32212 113.50000 11.15467 2.56100
 1661 58.32212 110.50000 11.15467 2.56100
 1662 58.32212 113.50000 11.15467 2.56100
 1663 67.31782 112.23000 0.00000 0.00000
 1664 84.95939 111.50000 0.00000 0.00000
 1665 69.96656 113.50000 0.00000 0.00000
 1666 60.60103 115.77000 0.00000 0.00000
 1667 43.67912 110.00000 0.00000 0.00000
 1668 75.66383 110.10000 0.00000 0.00000
 1669 75.66383 110.10000 0.00000 0.00000
 1670 75.66383 110.10000 0.00000 0.00000
 1671 57.97229 112.50000 0.00000 0.00000
 1672 70.96608 112.20000 0.00000 0.00000
 1673 33.41403 110.10000 22.51923 2.17900
 1674 52.99467 111.63000 7.99618 2.51050
 1675 34.58347 110.10000 22.51923 2.17900
 1676 58.32212 113.50000 11.15467 2.56100
 1677 58.32212 110.50000 11.15467 2.56100
 1678 69.96656 113.50000 0.00000 0.00000
 1679 75.66383 110.10000 0.00000 0.00000
 1680 57.97229 112.50000 0.00000 0.00000
 1681 61.62054 109.24000 0.00000 0.00000
 1682 33.41403 110.10000 22.51923 2.17900
 1683 58.32212 113.60000 11.15467 2.56100
 1684 58.32212 110.50000 11.15467 2.56100
 1685 57.97229 115.00000 7.99618 2.56100
 1686 52.97468 112.00000 7.99618 2.56100
 1687 53.32451 111.00000 7.99618 2.56100
 1688 50.80571 113.13000 0.00000 0.00000
 1689 102.95079 112.00000 0.00000 0.00000
 1690 66.96799 112.00000 0.00000 0.00000
 1691 69.96656 111.00000 0.00000 0.00000
 1692 69.96656 113.50000 0.00000 0.00000
 1693 27.28696 109.70000 0.00000 0.00000
 1694 56.97277 107.00000 0.00000 0.00000
 1695 43.67912 110.00000 0.00000 0.00000
 1696 59.97133 120.00000 0.00000 0.00000
 1697 44.97850 111.50000 0.00000 0.00000
 1698 75.66383 110.10000 0.00000 0.00000
 1699 75.66383 110.10000 0.00000 0.00000
 1700 75.66383 110.10000 0.00000 0.00000
 1701 44.97850 111.50000 0.00000 0.00000
 1702 57.97229 112.50000 0.00000 0.00000
 1703 57.97229 114.50000 0.00000 0.00000
 1704 42.97946 105.50000 0.00000 0.00000
 1705 44.97850 105.00000 0.00000 0.00000
 1706 44.97850 105.00000 0.00000 0.00000
 1707 70.96608 111.00000 0.00000 0.00000
 1708 26.48734 110.10000 22.51923 2.17900
 1709 56.86282 113.81000 7.99618 2.50000
 1710 34.58347 110.10000 22.51923 2.17900
 1711 58.32212 110.50000 11.15467 2.56100
 1712 75.66383 110.10000 0.00000 0.00000
 1713 75.66383 110.10000 0.00000 0.00000
 1714 75.66383 112.10000 0.00000 0.00000
 1715 49.97611 106.50000 0.00000 0.00000
 1716 69.96656 110.00000 0.00000 0.00000
 1717 34.98328 104.50000 0.00000 0.00000
 1718 26.48734 110.10000 22.51923 2.17900
 1719 53.32451 114.00000 7.99618 2.56100
 1720 53.32451 111.00000 0.00000 0.00000
 1721 63.09984 114.30000 0.00000 0.00000
 1722 61.97038 114.00000 0.00000 0.00000
 1723 69.96656 120.00000 0.00000 0.00000
 1724 69.96656 120.00000 0.00000 0.00000
 1725 67.31782 112.23000 0.00000 0.00000
 1726 69.96656 120.00000 0.00000 0.00000
 1727 69.96656 120.00000 0.00000 0.00000
 1728 27.28696 109.70000 0.00000 0.00000
 1729 60.60103 115.77000 0.00000 0.00000
 1730 43.67912 112.20000 0.00000 0.00000
 1731 44.97850 111.50000 0.00000 0.00000
 1732 75.66383 110.10000 0.00000 0.00000
 1733 69.96656 108.40000 0.00000 0.00000
 1734 75.66383 110.10000 0.00000 0.00000
 1735 64.96894 122.00000 0.00000 0.00000
 1736 58.37210 110.31000 0.00000 0.00000
 1737 57.97229 112.50000 0.00000 0.00000
 1738 57.97229 114.50000 0.00000 0.00000
 1739 49.97611 105.50000 0.00000 0.00000
 1740 44.97850 105.00000 0.00000 0.00000
 1741 44.97850 105.00000 0.00000 0.00000
 1742 70.96608 112.20000 0.00000 0.00000
 1743 70.96608 111.00000 0.00000 0.00000
 1744 79.96178 112.00000 0.00000 0.00000
 1745 34.58347 110.10000 22.51923 2.17900
 1746 41.97993 109.00000 0.00000 0.00000
 1747 31.98471 109.00000 22.51923 2.17900
 1748 75.66383 110.10000 0.00000 0.00000
 1749 75.66383 110.10000 0.00000 0.00000
 1750 75.66383 110.10000 0.00000 0.00000
 1751 57.97229 112.50000 0.00000 0.00000
 1752 34.58347 110.10000 22.51923 2.17900
 1753 75.66383 110.10000 0.00000 0.00000
 1754 34.48352 110.10000 22.51923 2.17900
 1755 53.22456 109.31000 0.00000 0.00000
 1756 44.97850 107.50000 0.00000 0.00000
 1757 33.41403 110.10000 0.00000 0.00000
 1758 51.47539 109.50000 0.00000 0.00000
 1759 51.23551 98.71000 0.00000 0.00000
 1760 53.97420 109.50000 0.00000 0.00000
 1761 51.47539 109.50000 0.00000 0.00000
 1762 38.28170 105.20000 0.00000 0.00000
 1763 32.38452 109.00000 0.00000 0.00000
 1764 89.95700 113.00000 0.00000 0.00000
 1765 32.38452 109.50000 49.97611 2.13000
 1766 32.38452 109.50000 49.97611 2.14000
 1767 32.38452 109.50000 49.97611 2.13000
 1768 45.87807 108.89000 0.00000 0.00000
 1769 59.97133 109.50000 0.00000 0.00000
 1770 59.97133 109.50000 0.00000 0.00000
 1771 56.21313 112.27000 0.00000 0.00000
 1772 45.87807 108.89000 0.00000 0.00000
 1773 64.96894 118.30000 0.00000 0.00000
 1774 44.97850 110.50000 0.00000 0.00000
 1775 44.97850 109.50000 0.00000 0.00000
 1776 54.97372 111.50000 0.00000 0.00000
 1777 39.95090 109.28000 0.00000 0.00000
 1778 89.95700 110.00000 5.39742 1.80200
 1779 44.84856 104.58000 0.00000 0.00000
 1780 89.95700 110.00000 5.39742 1.80200
 1781 33.46400 106.57000 0.00000 0.00000
 1782 37.98184 111.00000 0.00000 0.00000
 1783 99.95222 117.00000 0.00000 0.00000
 1784 46.07797 111.30000 0.00000 0.00000
 1785 48.97659 109.00000 0.00000 0.00000
 1786 44.97850 107.00000 0.00000 0.00000
 1787 44.97850 107.00000 0.00000 0.00000
 1788 41.97993 107.00000 0.00000 0.00000
 1789 35.98280 106.00000 0.00000 0.00000
 1790 49.97611 109.00000 0.00000 0.00000
 1791 35.48304 109.00000 5.39742 1.80200
 1792 44.29882 111.32000 0.00000 0.00000
 1793 47.21743 106.59000 30.01565 2.49990
 1794 27.77672 112.97000 30.03564 2.23400
 1795 43.97898 112.00000 29.98567 2.36900
 1796 30.98519 112.00000 2.99857 2.16800
 1797 43.97898 112.00000 29.98567 2.36900
 1798 30.98519 112.00000 2.99857 2.16800
 1799 45.74813 122.04000 29.98567 2.52280
 1800 43.97898 112.00000 29.98567 2.36900
 1801 30.98519 112.00000 2.99857 2.16800
 1802 57.47253 108.89000 4.99761 1.99700
 1803 35.48304 108.40000 10.39503 1.74600
 1804 54.97372 118.00000 0.00000 0.00000
 1805 34.58347 110.10000 22.51923 2.17900
 1806 39.98089 112.30000 0.00000 0.00000
 1807 39.98089 112.30000 0.00000 0.00000
 1808 35.48304 108.40000 13.99331 1.77500
 1809 35.48304 108.40000 13.99331 1.77500
 1810 49.97611 110.50000 30.98519 2.48500
 1811 44.97850 110.00000 0.00000 0.00000
 1812 43.67912 110.00000 0.00000 0.00000
 1813 32.98423 109.50000 29.98567 2.16300
 1814 69.96656 104.00000 0.00000 0.00000
 1815 43.67912 110.00000 0.00000 0.00000
 1816 32.98423 109.50000 29.98567 2.16300
 1817 51.97516 109.00000 37.98184 2.45100
 1818 24.98806 102.30000 0.00000 0.00000
 1819 54.97372 109.50000 0.00000 0.00000
 1820 44.97850 102.30000 34.98328 2.10100
 1821 53.97420 108.50000 36.98232 2.43000
 1822 44.97850 107.00000 0.00000 0.00000
 1823 49.27645 107.50000 0.00000 0.00000
 1824 53.97420 107.00000 36.98232 2.21000
 1825 53.97420 108.50000 36.98232 2.43000
 1826 49.27645 107.50000 0.00000 0.00000
 1827 67.66765 110.00000 0.00000 0.00000
 1828 99.95222 110.00000 0.00000 0.00000
 1829 39.98089 110.00000 0.00000 0.00000
 1830 67.66765 110.00000 0.00000 0.00000
 1831 26.48734 111.80000 22.51923 2.17900
 1832 56.77286 109.00000 0.00000 0.00000
 1833 67.66765 110.00000 0.00000 0.00000
 1834 67.66765 115.00000 0.00000 0.00000
 1835 99.95222 110.00000 0.00000 0.00000
 1836 39.98089 110.00000 0.00000 0.00000
 1837 67.66765 110.00000 0.00000 0.00000
 1838 26.48734 111.80000 22.51923 2.17900
 1839 33.41403 110.10000 22.51923 2.17900
 1840 67.66765 110.00000 0.00000 0.00000
 1841 67.66765 115.00000 0.00000 0.00000
 1842 67.66765 110.00000 0.00000 0.00000
 1843 67.66765 110.00000 0.00000 0.00000
 1844 34.58347 110.10000 22.51923 2.17900
 1845 33.41403 110.10000 22.51923 2.17900
 1846 67.66765 110.00000 0.00000 0.00000
 1847 34.58347 110.10000 0.00000 0.00000
 1848 59.97133 106.30000 0.00000 0.00000
 1849 41.97993 110.10000 0.00000 0.00000
 1850 39.98089 109.50000 26.98710 2.13000
 1851 44.97850 102.30000 34.98328 2.10100
 1852 44.97850 102.30000 34.98328 2.10100
 1853 44.97850 107.50000 34.98328 2.10100
 1854 35.48304 109.00000 5.39742 1.80200
 1855 23.98853 109.50000 27.98662 1.76700
 1856 49.97611 110.50000 0.00000 0.00000
 1857 46.97754 111.50000 0.00000 0.00000
 1858 41.97993 111.50000 0.00000 0.00000
 1859 41.97993 111.50000 0.00000 0.00000
 1860 41.97993 111.50000 0.00000 0.00000
 1861 41.97993 111.50000 0.00000 0.00000
 1862 41.97993 111.50000 0.00000 0.00000
 1863 32.98423 109.50000 29.98567 2.13000
 1864 32.98423 109.50000 29.98567 2.16300
 1865 32.98423 109.50000 29.98567 2.16300
 1866 32.98423 109.50000 29.98567 2.16300
 1867 32.98423 109.50000 29.98567 2.16300
 1868 49.97611 109.50000 0.00000 0.00000
 1869 54.97372 109.50000 0.00000 0.00000
 1870 54.97372 109.50000 0.00000 0.00000
 1871 49.27645 107.50000 0.00000 0.00000
 1872 33.41403 110.10000 22.51923 2.17900
 1873 33.41403 110.10000 22.51923 2.17900
 1874 33.41403 110.10000 22.51923 2.17900
 1875 32.98423 110.50000 38.98137 2.15500
 1876 33.41403 110.10000 22.51923 2.17900
 1877 32.98423 110.50000 36.98232 2.16800
 1878 33.41403 110.10000 22.51923 2.17900
 1879 34.58347 110.10000 22.51923 2.17900
 1880 32.98423 110.50000 37.98184 2.18100
 1881 34.58347 110.10000 22.51923 2.17900
 1882 34.58347 110.10000 22.51923 2.17900
 1883 37.48208 110.10000 22.51923 2.17900
 1884 34.58347 110.10000 22.51923 2.17900
 1885 34.58347 110.10000 22.51923 2.17900
 1886 33.41403 110.10000 22.51923 2.17900
 1887 41.97993 113.50000 0.00000 0.00000
 1888 33.41403 110.10000 0.00000 0.00000
 1889 38.98137 109.00000 0.00000 0.00000
 1890 33.41403 110.10000 22.51923 2.17900
 1891 49.97611 105.00000 0.00000 0.00000
 1892 51.47539 109.50000 0.00000 0.00000
 1893 51.47539 107.50000 0.00000 0.00000
 1894 30.48543 109.70000 49.97611 2.14000
 1895 30.48543 109.70000 49.97611 2.14000
 1896 30.48543 109.70000 49.97611 2.14000
 1897 45.87807 108.89000 0.00000 0.00000
 1898 59.97133 109.50000 0.00000 0.00000
 1899 59.97133 109.50000 0.00000 0.00000
 1900 45.87807 108.89000 0.00000 0.00000
 1901 64.96894 118.30000 0.00000 0.00000
 1902 89.95700 110.00000 5.39742 1.80200
 1903 89.95700 110.00000 5.39742 1.80200
 1904 37.98184 111.00000 0.00000 0.00000
 1905 46.07797 111.30000 0.00000 0.00000
 1906 41.97993 110.60000 0.00000 0.00000
 1907 44.97850 108.50000 0.00000 0.00000
 1908 46.07797 111.30000 0.00000 0.00000
 1909 110.44720 111.00000 0.00000 0.00000
 1910 35.48304 108.40000 5.39742 1.80200
 1911 47.77716 108.00000 0.00000 0.00000
 1912 41.97993 110.10000 0.00000 0.00000
 1913 41.97993 107.00000 0.00000 0.00000
 1914 39.98089 109.50000 26.98710 2.13000
 1915 44.97850 102.30000 34.98328 2.10100
 1916 44.97850 102.30000 34.98328 2.10100
 1917 44.97850 107.50000 34.98328 2.10100
 1918 35.48304 108.40000 5.39742 1.80200
 1919 23.98853 109.50000 27.98662 1.76700
 1920 34.98328 109.50000 49.97611 2.14000
 1921 35.48304 108.40000 5.39742 1.80200
 1922 30.48543 109.70000 49.97611 2.14000
 1923 35.78290 109.00000 5.39742 1.80200
 1924 32.38452 109.50000 49.97611 2.14000
 1925 34.98328 109.47000 5.39742 1.80200
 1926 67.31782 116.70000 0.00000 0.00000
 1927 60.32117 115.50000 0.00000 0.00000
 1928 29.98567 115.40000 0.00000 0.00000
 1929 58.32212 120.00000 0.00000 0.00000
 1930 34.58347 110.10000 0.00000 0.00000
 1931 77.31304 111.00000 7.99618 2.56100
 1932 29.98567 103.00000 0.00000 0.00000
 1933 22.98901 117.10000 22.51923 2.17900
 1934 22.98901 117.10000 22.51923 2.17900
 1935 53.32451 58.50000 0.00000 0.00000
 1936 34.48352 110.10000 22.51923 2.17900
 1937 63.96942 118.50000 0.00000 0.00000
 1938 68.46727 115.00000 0.00000 0.00000
 1939 22.98901 117.00000 5.39742 1.80200
 1940 94.95461 101.00000 0.00000 0.00000
 1941 84.95939 90.00000 0.00000 0.00000
 1942 71.96560 113.00000 0.00000 0.00000
 1943 89.95700 106.00000 0.00000 0.00000
 1944 45.97802 112.30000 0.00000 0.00000
 1945 69.96656 106.00000 0.00000 0.00000
 1946 89.95700 104.50000 0.00000 0.00000
 1947 88.95748 99.49000 0.00000 0.00000
 1948 45.97802 110.50000 0.00000 0.00000
 1949 50.97563 110.80000 0.00000 0.00000
 1950 54.97372 112.00000 0.00000 0.00000
 1951 27.98662 105.00000 5.39742 1.80670
 1952 51.97516 112.30000 0.00000 0.00000
 1953 49.97611 108.20000 0.00000 0.00000
 1954 45.16841 111.93000 0.00000 0.00000
 1955 44.97850 103.00000 0.00000 0.00000
 1956 69.96656 105.10000 0.00000 0.00000
 1957 44.97850 103.00000 0.00000 0.00000
 1958 44.97850 103.00000 0.00000 0.00000
 1959 44.97850 105.00000 0.00000 0.00000
 1960 57.97229 110.00000 11.15467 2.56100
 1961 57.97229 110.00000 11.15467 2.56100
 1962 45.40829 93.46000 0.00000 0.00000
 1963 69.96656 110.80000 0.00000 0.00000
 1964 75.66383 110.00000 0.00000 0.00000
 1965 49.83618 114.20000 0.00000 0.00000
 1966 63.37970 106.41000 0.00000 0.00000
 1967 51.97516 112.30000 0.00000 0.00000
 1968 49.97611 108.20000 0.00000 0.00000
 1969 72.46536 113.34000 0.00000 0.00000
 1970 49.97611 112.00000 0.00000 0.00000
 1971 51.97516 112.30000 0.00000 0.00000
 1972 49.97611 108.20000 0.00000 0.00000
 1973 49.97611 112.00000 0.00000 0.00000
 1974 111.94649 102.70000 0.00000 0.00000
 1975 111.94649 102.70000 0.00000 0.00000
 1976 68.44728 105.91000 0.00000 0.00000
 1977 68.46727 105.00000 0.00000 0.00000
 1978 69.96656 105.10000 0.00000 0.00000
 1979 59.97133 115.50000 0.00000 0.00000
 1980 46.06798 116.37000 0.00000 0.00000
 1981 47.97707 110.10000 0.00000 0.00000
 1982 69.96656 106.50000 0.00000 0.00000
 1983 68.39731 105.49000 0.00000 0.00000
 1984 39.61107 106.00000 0.00000 0.00000
 1985 57.97229 111.00000 0.00000 0.00000
 1986 57.97229 115.00000 7.99618 2.56100
 1987 51.97516 108.00000 0.00000 0.00000
 1988 34.58347 110.10000 22.51923 2.17900
 1989 58.44206 109.83000 7.60637 2.53870
 1990 44.97850 103.88000 0.00000 0.00000
 1991 34.58347 109.63000 5.31746 2.15190
 1992 57.97229 115.00000 7.99618 2.56100
 1993 57.97229 115.00000 7.99618 2.56100
 1994 53.32451 103.70000 7.99618 2.56100
 1995 44.97850 111.50000 0.00000 0.00000
 1996 34.58347 110.10000 22.51923 2.17900
 1997 57.97229 115.00000 7.99618 2.56100
 1998 57.97229 115.00000 7.99618 2.56100
 1999 53.32451 108.50000 7.99618 2.56100
 2000 44.97850 111.50000 0.00000 0.00000
 2001 34.58347 110.10000 22.51923 2.17900
 2002 57.97229 109.50000 11.15467 2.56100
 2003 57.97229 109.50000 11.15467 2.56100
 2004 53.32451 111.00000 7.99618 2.56100
 2005 53.32451 103.70000 7.99618 2.56100
 2006 109.94744 111.00000 0.00000 0.00000
 2007 109.94744 111.00000 0.00000 0.00000
 2008 43.67912 110.00000 0.00000 0.00000
 2009 109.94744 111.00000 0.00000 0.00000
 2010 109.94744 111.00000 0.00000 0.00000
 2011 67.66765 107.50000 0.00000 0.00000
 2012 57.97229 106.50000 7.99618 2.56100
 2013 114.94505 109.70000 0.00000 0.00000
 2014 75.66383 110.10000 0.00000 0.00000
 2015 44.97850 111.10000 0.00000 0.00000
 2016 104.06026 104.17000 0.00000 0.00000
 2017 43.97898 112.00000 29.98567 2.36900
 2018 34.98328 111.40000 22.51923 2.17900
 2019 34.98328 111.40000 22.51923 2.17900
 2020 57.97229 109.50000 11.15467 2.56100
 2021 53.32451 103.70000 7.99618 2.56100
 2022 139.93311 113.70000 0.00000 0.00000
 2023 109.94744 113.70000 0.00000 0.00000
 2024 69.96656 110.80000 0.00000 0.00000
 2025 69.96656 110.80000 0.00000 0.00000
 2026 43.67912 110.00000 0.00000 0.00000
 2027 109.94744 113.00000 0.00000 0.00000
 2028 67.66765 107.50000 0.00000 0.00000
 2029 83.95987 107.60000 0.00000 0.00000
 2030 57.97229 106.50000 7.99618 2.56100
 2031 114.94505 109.70000 0.00000 0.00000
 2032 75.66383 110.00000 0.00000 0.00000
 2033 44.97850 111.10000 0.00000 0.00000
 2034 70.35637 107.69000 0.00000 0.00000
 2035 43.97898 112.00000 29.98567 2.36900
 2036 34.98328 111.40000 22.51923 2.17900
 2037 34.98328 111.40000 22.51923 2.17900
 2038 75.66383 110.10000 0.00000 0.00000
 2039 75.66383 110.10000 0.00000 0.00000
 2040 34.48352 110.10000 22.51923 2.17900
 2041 109.94744 108.00000 0.00000 0.00000
 2042 109.94744 108.00000 0.00000 0.00000
 2043 109.94744 111.00000 0.00000 0.00000
 2044 75.66383 110.10000 0.00000 0.00000
 2045 75.66383 110.10000 0.00000 0.00000
 2046 34.48352 110.10000 22.51923 2.17900
 2047 139.93311 108.00000 0.00000 0.00000
 2048 42.97946 111.00000 0.00000 0.00000
 2049 109.94744 108.00000 0.00000 0.00000
 2050 42.97946 111.00000 0.00000 0.00000
 2051 47.97707 112.00000 0.00000 0.00000
 2052 47.97707 112.00000 0.00000 0.00000
 2053 47.97707 110.00000 0.00000 0.00000
 2054 109.94744 112.00000 0.00000 0.00000
 2055 42.97946 111.00000 0.00000 0.00000
 2056 42.97946 106.00000 0.00000 0.00000
 2057 32.38452 109.50000 49.97611 2.14000
 2058 75.66383 112.51000 0.00000 0.00000
 2059 53.97420 109.00000 0.00000 0.00000
 2060 99.95222 112.00000 0.00000 0.00000
 2061 45.87807 108.50000 0.00000 0.00000
 2062 59.97133 109.50000 0.00000 0.00000
 2063 45.87807 108.89000 0.00000 0.00000
 2064 103.33061 114.84000 0.00000 0.00000
 2065 69.96656 107.30000 0.00000 0.00000
 2066 42.81953 107.95000 0.00000 0.00000
 2067 57.47253 108.89000 4.99761 1.99700
 2068 75.96369 107.60000 0.00000 0.00000
 2069 83.95987 106.00000 0.00000 0.00000
 2070 44.97850 108.00000 0.00000 0.00000
 2071 39.98089 107.30000 0.00000 0.00000
 2072 51.97516 106.00000 0.00000 0.00000
 2073 51.97516 106.00000 0.00000 0.00000
 2074 51.97516 103.30000 0.00000 0.00000
 2075 104.94983 111.60000 0.00000 0.00000
 2076 68.46727 104.59000 0.00000 0.00000
 2077 69.96656 105.10000 0.00000 0.00000
 2078 74.96417 102.40000 0.00000 0.00000
 2079 51.97516 112.60000 0.00000 0.00000
 2080 69.96656 105.00000 0.00000 0.00000
 2081 79.96178 99.00000 0.00000 0.00000
 2082 57.97229 112.20000 0.00000 0.00000
 2083 69.96656 106.50000 0.00000 0.00000
 2084 69.96656 106.50000 0.00000 0.00000
 2085 57.97229 111.00000 0.00000 0.00000
 2086 39.98089 95.00000 0.00000 0.00000
 2087 64.96894 108.20000 0.00000 0.00000
 2088 64.96894 108.20000 0.00000 0.00000
 2089 74.96417 105.40000 0.00000 0.00000
 2090 37.98184 114.00000 0.00000 0.00000
 2091 57.97229 109.50000 11.15467 2.56100
 2092 34.98328 111.40000 22.51923 2.17900
 2093 57.97229 109.50000 11.15467 2.56100
 2094 57.97229 109.50000 11.15467 2.56100
 2095 69.96656 108.50000 0.00000 0.00000
 2096 79.96178 105.50000 7.99618 2.56100
 2097 69.96656 110.50000 0.00000 0.00000
 2098 83.95987 107.60000 0.00000 0.00000
 2099 44.97850 111.10000 0.00000 0.00000
 2100 107.98838 106.29000 0.00000 0.00000
 2101 34.98328 111.40000 22.51923 2.17900
 2102 57.97229 109.50000 11.15467 2.56100
 2103 69.96656 108.50000 0.00000 0.00000
 2104 69.96656 108.50000 0.00000 0.00000
 2105 53.32451 111.00000 7.99618 2.56100
 2106 39.98089 107.10000 0.00000 0.00000
 2107 89.95700 104.50000 0.00000 0.00000
 2108 69.96656 110.50000 0.00000 0.00000
 2109 83.95987 107.60000 0.00000 0.00000
 2110 44.97850 111.10000 0.00000 0.00000
 2111 34.98328 111.40000 22.51923 2.17900
 2112 33.41403 110.10000 22.51923 2.17900
 2113 86.95843 110.40000 0.00000 0.00000
 2114 26.48734 110.10000 22.51923 2.17900
 2115 57.97229 105.30000 0.00000 0.00000
 2116 34.48352 110.10000 22.51923 2.17900
 2117 43.97898 109.80000 0.00000 0.00000
 2118 58.97181 111.00000 0.00000 0.00000
 2119 55.83331 106.64000 0.00000 0.00000
 2120 47.97707 108.00000 0.00000 0.00000
 2121 53.97420 109.00000 0.00000 0.00000
 2122 84.95939 108.10000 0.00000 0.00000
 2123 69.96656 107.30000 0.00000 0.00000
 2124 45.93804 113.26000 0.00000 0.00000
 2125 38.48161 106.80000 5.39742 1.80200
 2126 51.97516 112.30000 0.00000 0.00000
 2127 49.97611 106.00000 0.00000 0.00000
 2128 49.97611 112.00000 0.00000 0.00000
 2129 51.97516 112.30000 0.00000 0.00000
 2130 49.97611 106.00000 0.00000 0.00000
 2131 49.97611 112.00000 0.00000 0.00000
 2132 104.94983 106.00000 0.00000 0.00000
 2133 104.94983 106.00000 0.00000 0.00000
 2134 76.96321 109.50000 0.00000 0.00000
 2135 76.96321 109.50000 0.00000 0.00000
 2136 45.97802 114.80000 0.00000 0.00000
 2137 53.32451 103.70000 7.99618 2.56100
 2138 109.94744 111.00000 0.00000 0.00000
 2139 69.96656 108.50000 0.00000 0.00000
 2140 119.94267 106.25000 0.00000 0.00000
 2141 34.48352 110.10000 22.51923 2.17900
 2142 53.32451 103.70000 7.99618 2.56100
 2143 69.96656 108.50000 0.00000 0.00000
 2144 69.96656 108.50000 0.00000 0.00000
 2145 34.98328 118.00000 0.00000 0.00000
 2146 69.96656 108.50000 0.00000 0.00000
 2147 69.96656 108.50000 0.00000 0.00000
 2148 34.48352 110.10000 22.51923 2.17900
 2149 109.94744 108.00000 0.00000 0.00000
 2150 42.97946 111.00000 0.00000 0.00000
 2151 51.47539 107.50000 0.00000 0.00000
 2152 51.47539 107.50000 0.00000 0.00000
 2153 45.17840 107.24000 0.00000 0.00000
 2154 137.93407 103.10000 0.00000 0.00000
 2155 61.97038 103.00000 0.00000 0.00000
 2156 40.98041 114.80000 0.00000 0.00000
 2157 69.96656 108.50000 0.00000 0.00000
 2158 26.48734 110.10000 22.51923 2.17900
 2159 67.96751 106.00000 0.00000 0.00000
 2160 26.48734 110.10000 22.51923 2.17900
 2161 53.97420 107.00000 0.00000 0.00000
 2162 85.95891 119.00000 0.00000 0.00000
 2163 52.97468 114.60000 0.00000 0.00000
 2164 51.47539 109.15000 0.00000 0.00000
 2165 35.48304 109.00000 5.39742 1.80200
 2166 58.32212 113.50000 11.15467 2.56100
 2167 58.32212 113.50000 11.15467 2.56100
 2168 53.32451 111.00000 7.99618 2.56100
 2169 53.32451 108.00000 7.99618 2.56100
 2170 34.48352 110.10000 22.51923 2.17900
 2171 58.32212 113.50000 11.15467 2.56100
 2172 53.32451 111.00000 7.99618 2.56100
 2173 53.32451 111.00000 7.99618 2.56100
 2174 58.32212 113.50000 11.15467 2.56100
 2175 53.32451 111.00000 7.99618 2.56100
 2176 34.48352 110.10000 22.51923 2.17900
 2177 58.32212 113.50000 11.15467 2.56100
 2178 58.32212 113.50000 11.15467 2.56100
 2179 53.32451 111.00000 7.99618 2.56100
 2180 53.32451 111.00000 7.99618 2.56100
 2181 53.32451 62.50000 0.00000 0.00000
 2182 69.96656 113.70000 0.00000 0.00000
 2183 69.96656 113.70000 0.00000 0.00000
 2184 34.48352 110.10000 22.51923 2.17900
 2185 69.96656 109.00000 0.00000 0.00000
 2186 53.32451 108.00000 7.99618 2.56100
 2187 94.95461 112.00000 0.00000 0.00000
 2188 34.48352 110.10000 22.51923 2.17900
 2189 55.97324 109.40000 0.00000 0.00000
 2190 53.32451 111.00000 7.99618 2.56100
 2191 69.96656 113.70000 0.00000 0.00000
 2192 69.96656 113.70000 0.00000 0.00000
 2193 94.95461 112.00000 0.00000 0.00000
 2194 34.48352 110.10000 22.51923 2.17900
 2195 102.95079 107.00000 44.97850 2.38300
 2196 92.95557 105.80000 0.00000 0.00000
 2197 17.49164 105.70000 43.97898 2.01000
 2198 69.96656 113.70000 0.00000 0.00000
 2199 69.96656 113.70000 0.00000 0.00000
 2200 69.96656 113.70000 0.00000 0.00000
 2201 53.97420 59.60000 7.99618 1.42500
 2202 49.97611 109.00000 0.00000 0.00000
 2203 34.48352 110.10000 22.51923 2.17900
 2204 69.96656 117.00000 0.00000 0.00000
 2205 58.97181 111.00000 0.00000 0.00000
 2206 72.96512 112.50000 0.00000 0.00000
 2207 69.96656 105.00000 0.00000 0.00000
 2208 54.97372 106.00000 0.00000 0.00000
 2209 37.93187 112.75000 0.00000 0.00000
 2210 54.85378 171.86000 0.00000 0.00000
 2211 74.46441 111.00000 0.00000 0.00000
 2212 66.96799 111.00000 0.00000 0.00000
 2213 99.95222 115.00000 0.00000 0.00000
 2214 99.95222 107.00000 0.00000 0.00000
 2215 74.46441 111.00000 0.00000 0.00000
 2216 66.96799 111.00000 0.00000 0.00000
 2217 99.95222 107.00000 0.00000 0.00000
 2218 74.46441 111.00000 0.00000 0.00000
 2219 66.96799 111.00000 0.00000 0.00000
 2220 44.15889 119.68000 0.00000 0.00000
 2221 74.46441 111.00000 0.00000 0.00000
 2222 66.96799 111.00000 0.00000 0.00000
 2223 99.95222 115.00000 0.00000 0.00000
 2224 66.10840 107.73000 0.00000 0.00000
 2225 44.15889 119.68000 0.00000 0.00000
 2226 74.46441 111.00000 0.00000 0.00000
 2227 66.96799 111.00000 0.00000 0.00000
 2228 99.95222 115.00000 0.00000 0.00000
 2229 66.10840 107.73000 0.00000 0.00000
 2230 49.97611 108.00000 0.00000 0.00000
 2231 61.61055 99.79000 0.00000 0.00000
 2232 48.97659 113.00000 0.00000 0.00000
 2233 69.96656 114.80000 0.00000 0.00000
 2234 44.97850 103.80000 0.00000 0.00000
 2235 89.95700 118.02000 0.00000 0.00000
 2236 69.96656 105.80000 0.00000 0.00000
 2237 69.96656 105.80000 0.00000 0.00000
 2238 37.60203 105.64000 0.00000 0.00000
 2239 8.99570 136.00000 0.00000 0.00000
 2240 79.96178 104.80000 0.00000 0.00000
 2241 57.97229 111.00000 0.00000 0.00000
 2242 76.76331 115.33000 0.00000 0.00000
 2243 64.96894 116.00000 0.00000 0.00000
 2244 55.97324 117.00000 0.00000 0.00000
 2245 59.97133 120.00000 0.00000 0.00000
 2246 104.94983 128.00000 0.00000 0.00000
 2247 66.96799 123.60000 0.00000 0.00000
 2248 37.98184 118.80000 0.00000 0.00000
 2249 66.96799 123.60000 0.00000 0.00000
 2250 66.96799 123.60000 0.00000 0.00000
 2251 37.98184 118.80000 0.00000 0.00000
 2252 66.96799 123.60000 0.00000 0.00000
 2253 66.96799 123.60000 0.00000 0.00000
 2254 37.98184 118.80000 0.00000 0.00000
 2255 62.27023 120.00000 0.00000 0.00000
 2256 62.27023 120.00000 0.00000 0.00000
 2257 62.27023 120.00000 0.00000 0.00000
 2258 62.12031 101.88000 0.00000 0.00000
 2259 48.97659 120.00000 0.00000 0.00000
 2260 39.98089 120.00000 0.00000 0.00000
 2261 47.27740 121.40000 0.00000 0.00000
 2262 52.97468 120.00000 0.00000 0.00000
 2263 46.97754 120.00000 0.00000 0.00000
 2264 49.97611 126.40000 0.00000 0.00000
 2265 59.97133 115.50000 0.00000 0.00000
 2266 37.98184 118.70000 0.00000 0.00000
 2267 42.77955 125.00000 77.96273 2.67000
 2268 59.97133 118.10000 0.00000 0.00000
 2269 59.97133 118.10000 0.00000 0.00000
 2270 39.98089 120.70000 0.00000 0.00000
 2271 40.38070 120.00000 0.00000 0.00000
 2272 40.38070 120.00000 0.00000 0.00000
 2273 41.79002 120.64000 0.00000 0.00000
 2274 40.38070 120.00000 0.00000 0.00000
 2275 40.20078 104.69000 0.00000 0.00000
 2276 24.98806 120.00000 0.00000 0.00000
 2277 84.95939 111.50000 0.00000 0.00000
 2278 33.98376 129.70000 0.00000 0.00000
 2279 33.98376 125.30000 0.00000 0.00000
 2280 99.95222 101.00000 0.00000 0.00000
 2281 99.95222 101.00000 0.00000 0.00000
 2282 57.97229 103.00000 0.00000 0.00000
 2283 129.93789 103.50000 0.00000 0.00000
 2284 59.97133 103.00000 0.00000 0.00000
 2285 109.94744 106.80000 0.00000 0.00000
 2286 29.98567 125.50000 19.99044 2.15000
 2287 59.97133 103.00000 0.00000 0.00000
 2288 114.94505 102.90000 0.00000 0.00000
 2289 159.92355 103.50000 0.00000 0.00000
 2290 159.92355 105.50000 0.00000 0.00000
 2291 149.92833 103.30000 0.00000 0.00000
 2292 149.92833 111.00000 0.00000 0.00000
 2293 99.95222 101.00000 0.00000 0.00000
 2294 119.94267 103.80000 0.00000 0.00000
 2295 159.92355 101.90000 0.00000 0.00000
 2296 109.94744 105.90000 0.00000 0.00000
 2297 99.95222 101.00000 0.00000 0.00000
 2298 49.97611 103.00000 0.00000 0.00000
 2299 159.92355 108.20000 0.00000 0.00000
 2300 159.92355 102.20000 0.00000 0.00000
 2301 109.94744 103.00000 0.00000 0.00000
 2302 29.98567 127.00000 19.99044 2.14000
 2303 29.98567 125.50000 0.00000 0.00000
 2304 99.95222 109.00000 0.00000 0.00000
 2305 129.93789 107.50000 0.00000 0.00000
 2306 39.98089 127.00000 0.00000 0.00000
 2307 34.98328 128.00000 0.00000 0.00000
 2308 84.95939 110.00000 0.00000 0.00000
 2309 69.96656 127.10000 0.00000 0.00000
 2310 69.96656 127.80000 0.00000 0.00000
 2311 129.93789 126.00000 0.00000 0.00000
 2312 159.92355 115.00000 0.00000 0.00000
 2313 48.04703 120.63000 0.00000 0.00000
 2314 36.90236 117.38000 0.00000 0.00000
 2315 29.98567 125.50000 19.99044 2.15000
 2316 129.93789 107.50000 0.00000 0.00000
 2317 99.95222 107.20000 0.00000 0.00000
 2318 69.96656 127.80000 0.00000 0.00000
 2319 69.96656 127.80000 0.00000 0.00000
 2320 44.97850 126.30000 0.00000 0.00000
 2321 44.97850 127.60000 0.00000 0.00000
 2322 129.93789 114.00000 0.00000 0.00000
 2323 26.00757 134.06000 0.00000 0.00000
 2324 29.98567 127.00000 19.99044 2.14000
 2325 39.98089 118.00000 0.00000 0.00000
 2326 34.98328 117.00000 0.00000 0.00000
 2327 84.95939 110.00000 0.00000 0.00000
 2328 69.96656 125.90000 0.00000 0.00000
 2329 44.97850 126.50000 0.00000 0.00000
 2330 44.97850 126.50000 0.00000 0.00000
 2331 189.90922 114.50000 0.00000 0.00000
 2332 48.40686 118.99000 0.00000 0.00000
 2333 27.98662 126.00000 0.00000 0.00000
 2334 69.96656 117.90000 0.00000 0.00000
 2335 39.98089 118.00000 0.00000 0.00000
 2336 89.95700 121.00000 0.00000 0.00000
 2337 31.98471 119.50000 0.00000 0.00000
 2338 144.93072 108.00000 0.00000 0.00000
 2339 23.94855 122.57000 14.99283 2.48010
 2340 24.98806 124.90000 14.99283 2.13000
 2341 100.95174 111.90000 0.00000 0.00000
 2342 28.98614 123.20000 0.00000 0.00000
 2343 102.95079 108.00000 0.00000 0.00000
 2344 43.97898 126.30000 22.98901 2.43000
 2345 139.93311 108.00000 0.00000 0.00000
 2346 24.98806 127.10000 14.99283 2.09000
 2347 43.97898 124.90000 0.00000 0.00000
 2348 38.98137 126.90000 0.00000 0.00000
 2349 28.98614 124.90000 0.00000 0.00000
 2350 115.94458 117.50000 0.00000 0.00000
 2351 37.98184 123.00000 0.00000 0.00000
 2352 115.94458 117.50000 0.00000 0.00000
 2353 37.98184 123.00000 0.00000 0.00000
 2354 54.97372 120.50000 0.00000 0.00000
 2355 34.98328 111.00000 0.00000 0.00000
 2356 49.97611 120.00000 0.00000 0.00000
 2357 49.97611 120.00000 0.00000 0.00000
 2358 29.98567 124.00000 0.00000 0.00000
 2359 74.96417 111.00000 0.00000 0.00000
 2360 74.96417 112.00000 0.00000 0.00000
 2361 37.98184 119.50000 0.00000 0.00000
 2362 29.98567 125.00000 0.00000 0.00000
 2363 37.98184 116.00000 0.00000 0.00000
 2364 37.98184 116.00000 0.00000 0.00000
 2365 99.95222 109.00000 0.00000 0.00000
 2366 41.97993 125.50000 0.00000 0.00000
 2367 53.97420 125.50000 0.00000 0.00000
 2368 19.99044 112.00000 0.00000 0.00000
 2369 19.99044 112.00000 0.00000 0.00000
 2370 19.99044 109.20000 0.00000 0.00000
 2371 28.27648 114.58000 0.00000 0.00000
 2372 9.99522 123.90000 0.00000 0.00000
 2373 68.84709 132.07000 0.00000 0.00000
 2374 26.69724 117.66000 0.00000 0.00000
 2375 69.96656 120.50000 0.00000 0.00000
 2376 32.98423 120.70000 0.00000 0.00000
 2377 29.98567 120.00000 0.00000 0.00000
 2378 69.96656 122.00000 0.00000 0.00000
 2379 69.96656 122.00000 0.00000 0.00000
 2380 69.96656 120.50000 0.00000 0.00000
 2381 44.97850 118.40000 0.00000 0.00000
 2382 44.97850 118.40000 0.00000 0.00000
 2383 44.97850 115.90000 0.00000 0.00000
 2384 31.98471 117.40000 0.00000 0.00000
 2385 31.98471 117.40000 0.00000 0.00000
 2386 49.97611 130.20000 0.00000 0.00000
 2387 69.96656 131.10000 0.00000 0.00000
 2388 69.96656 115.40000 0.00000 0.00000
 2389 69.96656 115.40000 0.00000 0.00000
 2390 44.97850 118.40000 0.00000 0.00000
 2391 44.97850 120.00000 0.00000 0.00000
 2392 40.48065 115.40000 0.00000 0.00000
 2393 69.96656 131.10000 0.00000 0.00000
 2394 64.23929 114.87000 0.00000 0.00000
 2395 49.97611 115.40000 0.00000 0.00000
 2396 44.97850 115.60000 0.00000 0.00000
 2397 29.98567 120.00000 0.00000 0.00000
 2398 23.98853 120.50000 0.00000 0.00000
 2399 31.98471 117.40000 0.00000 0.00000
 2400 39.98089 110.50000 0.00000 0.00000
 2401 9.99522 120.00000 0.00000 0.00000
 2402 24.98806 114.10000 0.00000 0.00000
 2403 39.98089 110.50000 0.00000 0.00000
 2404 69.96656 115.50000 0.00000 0.00000
 2405 84.95939 119.10000 0.00000 0.00000
 2406 89.95700 117.80000 0.00000 0.00000
 2407 89.95700 115.10000 0.00000 0.00000
 2408 64.96894 121.00000 0.00000 0.00000
 2409 29.98567 120.00000 0.00000 0.00000
 2410 69.96656 128.70000 0.00000 0.00000
 2411 51.97516 120.00000 0.00000 0.00000
 2412 49.97611 128.70000 0.00000 0.00000
 2413 69.96656 126.10000 0.00000 0.00000
 2414 32.98423 111.30000 0.00000 0.00000
 2415 54.97372 121.00000 0.00000 0.00000
 2416 14.99283 130.50000 0.00000 0.00000
 2417 54.97372 122.50000 0.00000 0.00000
 2418 99.95222 109.70000 0.00000 0.00000
 2419 14.99283 119.80000 0.00000 0.00000
 2420 59.97133 127.80000 0.00000 0.00000
 2421 49.97611 120.00000 0.00000 0.00000
 2422 59.97133 118.00000 0.00000 0.00000
 2423 41.97993 119.50000 0.00000 0.00000
 2424 41.97993 119.50000 0.00000 0.00000
 2425 41.97993 119.50000 0.00000 0.00000
 2426 59.97133 117.00000 0.00000 0.00000
 2427 59.97133 117.00000 0.00000 0.00000
 2428 59.97133 117.00000 0.00000 0.00000
 2429 47.75717 101.45000 0.00000 0.00000
 2430 59.97133 115.00000 0.00000 0.00000
 2431 59.97133 118.00000 0.00000 0.00000
 2432 39.48113 117.00000 0.00000 0.00000
 2433 37.98184 116.00000 0.00000 0.00000
 2434 41.97993 119.50000 0.00000 0.00000
 2435 44.97850 115.50000 0.00000 0.00000
 2436 44.97850 117.50000 0.00000 0.00000
 2437 44.97850 121.00000 0.00000 0.00000
 2438 44.97850 121.00000 0.00000 0.00000
 2439 39.98089 121.00000 0.00000 0.00000
 2440 38.55157 101.75000 0.00000 0.00000
 2441 44.97850 121.00000 0.00000 0.00000
 2442 99.95222 114.20000 0.00000 0.00000
 2443 99.95222 114.20000 0.00000 0.00000
 2444 43.10939 120.49000 0.00000 0.00000
 2445 30.03564 121.53000 0.00000 0.00000
 2446 43.10939 120.49000 0.00000 0.00000
 2447 30.03564 121.53000 0.00000 0.00000
 2448 46.77764 124.60000 0.00000 0.00000
 2449 49.97611 120.00000 0.00000 0.00000
 2450 49.97611 120.00000 0.00000 0.00000
 2451 49.97611 120.00000 0.00000 0.00000
 2452 49.97611 120.00000 0.00000 0.00000
 2453 49.97611 120.00000 0.00000 0.00000
 2454 49.97611 120.00000 0.00000 0.00000
 2455 49.97611 115.00000 0.00000 0.00000
 2456 54.49395 105.86000 0.00000 0.00000
 2457 33.98376 123.00000 0.00000 0.00000
 2458 49.97611 120.00000 0.00000 0.00000
 2459 49.97611 120.00000 0.00000 0.00000
 2460 33.98376 123.00000 0.00000 0.00000
 2461 49.97611 119.00000 0.00000 0.00000
 2462 49.97611 119.00000 0.00000 0.00000
 2463 59.97133 120.00000 0.00000 0.00000
 2464 59.97133 120.00000 0.00000 0.00000
 2465 59.97133 120.00000 0.00000 0.00000
 2466 39.98089 121.50000 0.00000 0.00000
 2467 33.98376 117.00000 0.00000 0.00000
 2468 33.98376 117.00000 0.00000 0.00000
 2469 34.98328 117.00000 0.00000 0.00000
 2470 34.98328 117.00000 0.00000 0.00000
 2471 34.98328 117.00000 0.00000 0.00000
 2472 34.98328 117.00000 0.00000 0.00000
 2473 33.98376 122.00000 0.00000 0.00000
 2474 37.48208 98.23000 0.00000 0.00000
 2475 49.97611 120.00000 0.00000 0.00000
 2476 49.97611 120.00000 0.00000 0.00000
 2477 22.98901 120.00000 0.00000 0.00000
 2478 59.97133 111.60000 0.00000 0.00000
 2479 49.97611 120.00000 0.00000 0.00000
 2480 39.98089 121.50000 0.00000 0.00000
 2481 109.94744 118.30000 34.98328 2.33000
 2482 58.67195 104.90000 0.00000 0.00000
 2483 51.77525 109.50000 0.00000 0.00000
 2484 48.66674 114.29000 0.00000 0.00000
 2485 109.94744 118.30000 34.98328 2.33000
 2486 109.94744 118.30000 34.98328 2.33000
 2487 39.48113 103.10000 0.00000 0.00000
 2488 34.98328 109.00000 0.00000 0.00000
 2489 109.94744 118.30000 34.98328 2.33000
 2490 34.98328 109.00000 0.00000 0.00000
 2491 29.98567 123.60000 39.98089 2.35000
 2492 46.97754 113.10000 0.00000 0.00000
 2493 30.98519 117.00000 0.00000 0.00000
 2494 30.98519 117.00000 0.00000 0.00000
 2495 19.99044 114.00000 0.00000 0.00000
 2496 69.96656 121.70000 0.00000 0.00000
 2497 19.99044 114.00000 0.00000 0.00000
 2498 69.96656 121.70000 0.00000 0.00000
 2499 47.32738 107.73000 0.00000 0.00000
 2500 56.58295 114.00000 0.00000 0.00000
 2501 47.97707 113.50000 0.00000 0.00000
 2502 35.24315 111.39000 0.00000 0.00000
 2503 47.97707 113.50000 0.00000 0.00000
 2504 69.96656 112.00000 0.00000 0.00000
 2505 34.98328 111.00000 0.00000 0.00000
 2506 42.47969 116.00000 0.00000 0.00000
 2507 52.97468 110.90000 0.00000 0.00000
 2508 19.99044 114.00000 0.00000 0.00000
 2509 38.98137 123.00000 0.00000 0.00000
 2510 19.99044 114.00000 0.00000 0.00000
 2511 38.98137 123.00000 0.00000 0.00000
 2512 42.97946 106.00000 0.00000 0.00000
 2513 44.97850 106.00000 0.00000 0.00000
 2514 39.98089 109.00000 0.00000 0.00000
 2515 34.76338 114.44000 0.00000 0.00000
 2516 54.97372 113.00000 0.00000 0.00000
 2517 34.98328 115.00000 0.00000 0.00000
 2518 39.98089 114.00000 0.00000 0.00000
 2519 44.97850 115.00000 0.00000 0.00000
 2520 43.86903 111.49000 0.00000 0.00000
 2521 45.97802 114.00000 0.00000 0.00000
 2522 45.97802 114.00000 0.00000 0.00000
 2523 43.47922 113.50000 0.00000 0.00000
 2524 42.50968 109.95000 0.00000 0.00000
 2525 42.50968 109.95000 0.00000 0.00000
 2526 41.94995 111.88000 4.99761 2.01270
 2527 40.48065 109.60000 0.00000 0.00000
 2528 47.97707 112.20000 37.98184 2.35000
 2529 69.96656 111.00000 39.98089 2.31000
 2530 59.97133 115.00000 0.00000 0.00000
 2531 45.97802 111.00000 0.00000 0.00000
 2532 34.98328 111.00000 0.00000 0.00000
 2533 89.95700 112.20000 34.98328 2.36000
 2534 67.96751 114.00000 0.00000 0.00000
 2535 42.27979 111.50000 0.00000 0.00000
 2536 44.97850 104.00000 0.00000 0.00000
 2537 40.48065 112.20000 4.99761 2.42170
 2538 42.07989 108.90000 4.99761 2.02920
 2539 49.97611 111.00000 0.00000 0.00000
 2540 42.27979 113.20000 0.00000 0.00000
 2541 54.97372 113.00000 0.00000 0.00000
 2542 54.97372 113.00000 0.00000 0.00000
 2543 54.97372 108.00000 0.00000 0.00000
 2544 49.97611 115.80000 0.00000 0.00000
 2545 40.98041 112.10000 0.00000 0.00000
 2546 40.98041 112.10000 0.00000 0.00000
 2547 40.98041 112.10000 0.00000 0.00000
 2548 40.98041 112.10000 0.00000 0.00000
 2549 59.26167 102.37000 0.00000 0.00000
 2550 48.97659 115.00000 0.00000 0.00000
 2551 37.98184 110.00000 0.00000 0.00000
 2552 41.97993 105.85000 0.00000 0.00000
 2553 41.48017 107.10000 0.00000 0.00000
 2554 44.97850 104.80000 0.00000 0.00000
 2555 42.97946 113.90000 0.00000 0.00000
 2556 39.98089 107.00000 0.00000 0.00000
 2557 42.97946 115.60000 0.00000 0.00000
 2558 59.97133 106.90000 0.00000 0.00000
 2559 40.98041 114.50000 0.00000 0.00000
 2560 45.43828 110.01000 0.00000 0.00000
 2561 70.24642 113.25000 0.00000 0.00000
 2562 45.43828 110.01000 0.00000 0.00000
 2563 70.24642 113.25000 0.00000 0.00000
 2564 139.93311 103.70000 0.00000 0.00000
 2565 57.53250 109.57000 0.00000 0.00000
 2566 139.93311 103.70000 0.00000 0.00000
 2567 131.28724 101.45000 0.00000 0.00000
 2568 42.97946 112.00000 0.00000 0.00000
 2569 139.93311 103.70000 0.00000 0.00000
 2570 66.96799 104.10000 0.00000 0.00000
 2571 46.97754 109.00000 0.00000 0.00000
 2572 46.97754 103.90000 0.00000 0.00000
 2573 47.05751 102.42000 0.00000 0.00000
 2574 100.95174 99.86000 0.00000 0.00000
 2575 42.97946 112.00000 0.00000 0.00000
 2576 49.97611 109.25000 0.00000 0.00000
 2577 49.97611 103.60000 0.00000 0.00000
 2578 55.97324 100.60000 0.00000 0.00000
 2579 65.17884 103.64000 0.00000 0.00000
 2580 59.97133 112.00000 0.00000 0.00000
 2581 51.97516 115.00000 0.00000 0.00000
 2582 54.97372 102.00000 0.00000 0.00000
 2583 49.97611 102.00000 0.00000 0.00000
 2584 59.97133 109.50000 25.98758 2.46600
 2585 59.97133 109.50000 25.98758 2.46600
 2586 59.97133 109.50000 25.98758 2.46600
 2587 59.97133 109.50000 25.98758 2.46600
 2588 68.96703 100.00000 0.00000 0.00000
 2589 79.96178 112.00000 0.00000 0.00000
 2590 44.97850 115.20000 0.00000 0.00000
 2591 44.97850 109.50000 0.00000 0.00000
 2592 29.98567 110.80000 26.98710 2.07400
 2593 44.97850 109.50000 0.00000 0.00000
 2594 29.98567 110.80000 26.98710 2.07400
 2595 84.95939 107.00000 0.00000 0.00000
 2596 37.98184 112.00000 0.00000 0.00000
 2597 44.97850 115.20000 0.00000 0.00000
 2598 29.98567 110.80000 26.98710 2.07400
 2599 39.98089 115.20000 0.00000 0.00000
 2600 49.97611 115.20000 0.00000 0.00000
 2601 45.97802 115.20000 0.00000 0.00000
 2602 29.98567 110.80000 26.98710 2.07400
 2603 39.98089 115.20000 0.00000 0.00000
 2604 45.97802 115.20000 0.00000 0.00000
 2605 29.98567 110.80000 26.98710 2.07400
 2606 99.95222 111.00000 0.00000 0.00000
 2607 32.98423 109.50000 3.99809 2.05600
 2608 103.95031 113.00000 0.00000 0.00000
 2609 134.93550 114.20000 0.00000 0.00000
 2610 32.98423 109.50000 3.99809 2.05600
 2611 41.97993 106.30000 0.00000 0.00000
 2612 50.97563 107.50000 0.00000 0.00000
 2613 29.98567 109.50000 19.99044 2.07400
 2614 29.98567 109.50000 19.99044 2.07400
 2615 29.98567 109.50000 19.99044 2.07400
 2616 29.98567 109.50000 19.99044 2.07400
 2617 43.97898 109.50000 0.00000 0.00000
 2618 99.95222 106.00000 0.00000 0.00000
 2619 139.93311 104.00000 0.00000 0.00000
 2620 49.97611 104.00000 0.00000 0.00000
 2621 149.92833 108.50000 0.00000 0.00000
 2622 164.92117 109.30000 0.00000 0.00000
 2623 52.97468 109.00000 0.00000 0.00000
 2624 52.97468 109.00000 0.00000 0.00000
 2625 184.91161 120.00000 0.00000 0.00000
 2626 64.96894 108.00000 0.00000 0.00000
 2627 64.96894 108.00000 0.00000 0.00000
 2628 64.96894 108.00000 0.00000 0.00000
 2629 64.96894 104.00000 0.00000 0.00000
 2630 94.95461 109.70000 0.00000 0.00000
 2631 94.95461 109.70000 0.00000 0.00000
 2632 64.96894 107.00000 0.00000 0.00000
 2633 71.96560 104.00000 0.00000 0.00000
 2634 94.95461 109.70000 0.00000 0.00000
 2635 94.95461 109.70000 0.00000 0.00000
 2636 54.14412 104.20000 0.00000 0.00000
 2637 54.95373 102.86000 0.00000 0.00000
 2638 71.85565 104.74000 0.00000 0.00000
 2639 94.95461 109.70000 0.00000 0.00000
 2640 64.96894 107.00000 0.00000 0.00000
 2641 71.96560 104.00000 0.00000 0.00000
 2642 54.97372 107.00000 0.00000 0.00000
 2643 61.11079 105.67000 0.00000 0.00000
 2644 92.25590 109.65000 0.00000 0.00000
 2645 39.98089 109.60000 29.98567 2.26510
 2646 39.98089 109.60000 29.98567 2.26510
 2647 39.98089 109.60000 29.98567 2.26510
 2648 39.98089 109.60000 29.98567 2.26510
 2649 39.98089 111.00000 0.00000 0.00000
 2650 39.98089 111.00000 0.00000 0.00000
 2651 49.17649 126.80000 1.76916 2.31060
 2652 14.22320 135.67000 10.47499 3.01040
 2653 89.95700 120.00000 19.99044 2.30000
 2654 32.98423 108.00000 0.00000 0.00000
 2655 32.98423 108.00000 0.00000 0.00000
 2656 19.99044 120.00000 34.98328 2.33000
 2657 19.99044 120.00000 34.98328 2.33000
 2658 19.99044 120.00000 34.98328 2.33000
 2659 14.99283 109.00000 26.98710 1.90000
 2660 19.99044 120.00000 34.98328 2.33000
 2661 19.99044 120.00000 34.98328 2.33000
 2662 19.99044 120.00000 34.98328 2.33000
 2663 14.99283 109.00000 26.98710 1.90000
 2664 47.97707 113.00000 0.00000 0.00000
 2665 19.99044 120.00000 34.98328 2.33000
 2666 19.99044 120.00000 34.98328 2.33000
 2667 19.99044 120.00000 34.98328 2.33000
 2668 14.99283 109.00000 26.98710 1.90000
 2669 47.97707 113.00000 0.00000 0.00000
 2670 19.99044 120.00000 34.98328 2.33000
 2671 19.99044 120.00000 34.98328 2.33000
 2672 44.97850 143.00000 39.98089 3.25000
 2673 44.97850 143.00000 39.98089 3.25000
 2674 44.97850 139.50000 39.98089 3.05000
 2675 65.59864 105.72000 0.00000 0.00000
 2676 65.59864 105.72000 0.00000 0.00000
 2677 54.97372 115.00000 0.00000 0.00000
 2678 60.97086 116.00000 0.00000 0.00000
 2679 64.96894 108.00000 0.00000 0.00000
 2680 64.96894 108.00000 0.00000 0.00000
 2681 65.96847 108.00000 39.98089 1.92800
 2682 49.97611 106.00000 0.00000 0.00000
 2683 49.97611 106.00000 0.00000 0.00000
 2684 49.97611 106.00000 0.00000 0.00000
 2685 57.47253 106.00000 0.00000 0.00000
 2686 49.97611 109.00000 0.00000 0.00000
 2687 49.97611 109.00000 0.00000 0.00000
 2688 64.97894 100.67000 0.00000 0.00000
 2689 64.95895 98.89000 0.00000 0.00000
 2690 59.97133 101.50000 0.00000 0.00000
 2691 60.97086 98.30000 0.00000 0.00000
 2692 29.98567 115.00000 39.98089 2.35000
 2693 29.98567 115.00000 39.98089 2.35000
 2694 29.98567 115.00000 39.98089 2.35000
 2695 34.50351 105.26000 39.97089 2.19060
 2696 81.96082 110.00000 0.00000 0.00000
 2697 50.32594 97.00000 0.00000 0.00000
 2698 89.95700 60.80000 0.00000 0.00000
 2699 88.95748 95.00000 0.00000 0.00000
 2700 84.95939 104.00000 0.00000 0.00000
 2701 124.94028 104.40000 0.00000 0.00000
 2702 117.31392 102.36000 0.00000 0.00000
 2703 89.95700 107.10000 0.00000 0.00000
 2704 75.96369 108.05000 0.00000 0.00000
 2705 54.97372 89.12000 0.00000 0.00000
 2706 94.95461 111.00000 0.00000 0.00000
 2707 94.95461 111.00000 0.00000 0.00000
 2708 109.94744 108.00000 0.00000 0.00000
 2709 95.07455 107.05000 0.00000 0.00000
 2710 94.95461 111.00000 0.00000 0.00000
 2711 169.91878 109.00000 0.00000 0.00000
 2712 94.95461 111.00000 0.00000 0.00000
 2713 94.95461 109.70000 0.00000 0.00000
 2714 94.95461 109.70000 0.00000 0.00000
 2715 39.98089 99.00000 0.00000 0.00000
 2716 19.99044 99.00000 0.00000 0.00000
 2717 39.98089 99.00000 0.00000 0.00000
 2718 19.99044 99.00000 0.00000 0.00000
 2719 39.98089 115.00000 0.00000 0.00000
 2720 101.95127 126.50000 0.00000 0.00000
 2721 64.32925 121.00000 0.00000 0.00000
 2722 52.82475 107.34000 0.00000 0.00000
 2723 119.48289 120.64000 0.00000 0.00000
 2724 59.99132 96.04000 0.00000 0.00000
 2725 98.85275 111.60000 0.00000 0.00000
 2726 98.85275 111.60000 0.00000 0.00000
 2727 98.85275 108.23000 0.00000 0.00000
 2728 74.96417 131.03000 0.00000 0.00000
 2729 48.07702 108.00000 0.00000 0.00000
 2730 48.07702 108.00000 0.00000 0.00000
 2731 48.07702 108.00000 0.00000 0.00000
 2732 98.85275 111.60000 0.00000 0.00000
 2733 98.85275 111.60000 0.00000 0.00000
 2734 48.07702 108.00000 0.00000 0.00000
 2735 48.07702 108.00000 0.00000 0.00000
 2736 96.75375 112.84000 0.00000 0.00000
 2737 96.75375 112.84000 0.00000 0.00000
 2738 98.85275 104.00000 0.00000 0.00000
 2739 74.96417 131.03000 0.00000 0.00000
 2740 74.96417 131.03000 0.00000 0.00000
 2741 92.35585 128.47000 0.00000 0.00000
 2742 98.85275 94.00000 0.00000 0.00000
 2743 90.05695 90.00000 0.00000 0.00000
 2744 98.85275 103.00000 0.00000 0.00000
 2745 90.05695 94.00000 0.00000 0.00000
 2746 98.85275 103.00000 0.00000 0.00000
 2747 88.66762 94.70000 0.00000 0.00000
 2748 139.93311 110.60000 0.00000 0.00000
 2749 59.97133 103.20000 0.00000 0.00000
 2750 103.95031 120.00000 0.00000 0.00000
 2751 98.85275 107.50000 0.00000 0.00000
 2752 88.85753 111.60000 0.00000 0.00000
 2753 98.85275 111.00000 0.00000 0.00000
 2754 79.96178 104.30000 0.00000 0.00000
 2755 48.07702 105.00000 0.00000 0.00000
 2756 48.07702 108.00000 0.00000 0.00000
 2757 48.07702 107.50000 0.00000 0.00000
 2758 48.07702 111.00000 0.00000 0.00000
 2759 98.85275 94.00000 0.00000 0.00000
 2760 98.85275 103.00000 0.00000 0.00000
 2761 95.54433 100.09000 0.00000 0.00000
 2762 103.95031 121.00000 0.00000 0.00000
 2763 88.85753 111.00000 0.00000 0.00000
 2764 88.85753 111.60000 0.00000 0.00000
 2765 74.96417 131.03000 0.00000 0.00000
 2766 103.95031 121.00000 0.00000 0.00000
 2767 88.85753 111.00000 0.00000 0.00000
 2768 88.85753 111.60000 0.00000 0.00000
 2769 88.85753 111.00000 0.00000 0.00000
 2770 74.96417 131.03000 0.00000 0.00000
 2771 74.96417 131.03000 0.00000 0.00000
 2772 88.85753 111.00000 0.00000 0.00000
 2773 88.85753 111.00000 0.00000 0.00000
 2774 96.75375 112.84000 0.00000 0.00000
 2775 96.75375 112.84000 0.00000 0.00000
 2776 88.85753 111.00000 0.00000 0.00000
 2777 92.35585 128.47000 0.00000 0.00000
 2778 39.84096 91.85000 0.00000 0.00000
 2779 104.94983 95.00000 0.00000 0.00000
 2780 109.94744 97.00000 0.00000 0.00000
 2781 69.96656 99.50000 0.00000 0.00000
 2782 149.92833 103.00000 0.00000 0.00000
 2783 109.94744 97.00000 0.00000 0.00000
 2784 51.48539 101.70000 0.00000 0.00000
 2785 69.58674 99.37000 0.00000 0.00000
 2786 53.41447 104.89000 0.00000 0.00000
 2787 72.46536 103.30000 0.00000 0.00000
 2788 72.46536 103.30000 0.00000 0.00000
 2789 59.13173 94.97000 0.00000 0.00000
 2790 72.46536 103.30000 0.00000 0.00000
 2791 62.47014 99.48000 0.00000 0.00000
 2792 74.96417 92.00000 0.00000 0.00000
 2793 74.96417 92.00000 0.00000 0.00000
 2794 65.82853 98.05000 0.00000 0.00000
 2795 65.82853 98.05000 0.00000 0.00000
 2796 65.82853 98.05000 0.00000 0.00000
 2797 65.82853 98.05000 0.00000 0.00000
 2798 58.97181 94.70000 0.00000 0.00000
 2799 58.97181 94.70000 0.00000 0.00000
 2800 59.97133 96.00000 0.00000 0.00000
 2801 59.97133 96.00000 0.00000 0.00000
 2802 59.97133 96.00000 0.00000 0.00000
 2803 59.97133 96.00000 0.00000 0.00000
 2804 49.97611 109.00000 0.00000 0.00000
 2805 45.97802 97.00000 0.00000 0.00000
 2806 65.96847 91.00000 0.00000 0.00000
 2807 33.98376 95.00000 0.00000 0.00000
 2808 38.78146 95.00000 0.00000 0.00000
 2809 33.98376 95.00000 0.00000 0.00000
 2810 33.98376 95.00000 0.00000 0.00000
 2811 38.78146 95.00000 0.00000 0.00000
 2812 47.55727 95.20000 0.00000 0.00000
 2813 36.03278 92.08000 0.00000 0.00000
 2814 36.03278 92.08000 0.00000 0.00000
 2815 33.98376 95.00000 0.00000 0.00000
 2816 33.98376 95.00000 0.00000 0.00000
 2817 33.98376 95.00000 0.00000 0.00000
 2818 65.87851 92.33000 0.00000 0.00000
 2819 38.78146 95.00000 0.00000 0.00000
 2820 42.97946 95.00000 0.00000 0.00000
 2821 45.17840 96.20000 0.00000 0.00000
 2822 60.71098 99.09000 0.00000 0.00000
 2823 84.95939 98.00000 0.00000 0.00000
 2824 79.96178 99.00000 0.00000 0.00000
 2825 84.95939 100.00000 0.00000 0.00000
 2826 33.18414 94.20000 0.00000 0.00000
 2827 129.93789 109.47000 34.98328 2.45000
 2828 84.95939 98.00000 0.00000 0.00000
 2829 75.93370 97.86000 0.00000 0.00000
 2830 49.97611 97.00000 0.00000 0.00000
 2831 69.96656 106.50000 0.00000 0.00000
 2832 49.97611 97.00000 0.00000 0.00000
 2833 69.96656 97.00000 0.00000 0.00000
 2834 59.97133 98.00000 0.00000 0.00000
 2835 59.97133 101.00000 0.00000 0.00000
 2836 79.96178 102.00000 0.00000 0.00000
 2837 61.97038 101.00000 0.00000 0.00000
 2838 74.96417 107.50000 0.00000 0.00000
 2839 92.95557 96.00000 0.00000 0.00000
 2840 79.96178 102.00000 0.00000 0.00000
 2841 72.96512 103.00000 0.00000 0.00000
 2842 82.96034 101.00000 0.00000 0.00000
 2843 78.96226 108.50000 0.00000 0.00000
 2844 92.95557 96.00000 0.00000 0.00000
 2845 69.96656 108.50000 0.00000 0.00000
 2846 83.06030 102.30000 0.00000 0.00000
 2847 74.96417 110.50000 0.00000 0.00000
 2848 79.96178 111.00000 0.00000 0.00000
 2849 99.95222 102.00000 0.00000 0.00000
 2850 84.95939 121.00000 0.00000 0.00000
 2851 89.95700 109.00000 0.00000 0.00000
 2852 84.95939 95.00000 0.00000 0.00000
 2853 64.96894 106.50000 0.00000 0.00000
 2854 33.98376 95.00000 0.00000 0.00000
 2855 78.96226 106.75000 0.00000 0.00000
 2856 79.96178 133.00000 0.00000 0.00000
 2857 39.98089 123.00000 0.00000 0.00000
 2858 79.96178 126.00000 0.00000 0.00000
 2859 59.97133 120.90000 0.00000 0.00000
 2860 59.97133 108.90000 0.00000 0.00000
 2861 79.96178 133.00000 0.00000 0.00000
 2862 39.98089 125.00000 0.00000 0.00000
 2863 79.96178 133.00000 0.00000 0.00000
 2864 39.98089 125.00000 0.00000 0.00000
 2865 149.92833 148.00000 0.00000 0.00000
 2866 109.94744 135.00000 0.00000 0.00000
 2867 109.94744 126.90000 0.00000 0.00000
 2868 149.92833 120.00000 0.00000 0.00000
 2869 109.94744 122.50000 0.00000 0.00000
 2870 22.98901 109.47000 14.99283 2.81855
 2871 53.32451 111.00000 7.99618 2.56100
 2872 44.97850 111.00000 0.00000 0.00000
 2873 44.97850 111.00000 0.00000 0.00000
 2874 74.96417 121.50000 0.00000 0.00000
 2875 74.96417 121.50000 0.00000 0.00000
 2876 74.96417 121.50000 0.00000 0.00000
 2877 34.98328 116.00000 0.00000 0.00000
 2878 34.98328 116.00000 0.00000 0.00000
 2879 34.98328 116.00000 0.00000 0.00000
 2880 59.97133 113.80000 0.00000 0.00000
 2881 49.97611 109.50000 0.00000 0.00000
 2882 49.97611 109.50000 0.00000 0.00000
 2883 49.97611 109.50000 0.00000 0.00000
 2884 54.97372 108.89000 0.00000 0.00000
 2885 54.97372 108.89000 0.00000 0.00000
 2886 64.96894 118.00000 0.00000 0.00000
 2887 64.96894 116.00000 0.00000 0.00000
 2888 64.96894 116.00000 0.00000 0.00000
 2889 44.97850 126.00000 0.00000 0.00000
 2890 44.97850 126.00000 0.00000 0.00000
 2891 59.97133 113.80000 0.00000 0.00000
 2892 54.97372 108.89000 0.00000 0.00000
 2893 32.98423 109.50000 29.98567 2.16300
 2894 32.98423 109.50000 29.98567 2.16300
 2895 53.32451 111.00000 7.99618 2.56100
 2896 53.32451 111.00000 7.99618 2.56100
 2897 53.32451 111.00000 7.99618 2.56100
 2898 53.32451 111.00000 7.99618 2.56100
 2899 44.97850 111.00000 0.00000 0.00000
 2900 53.32451 111.00000 7.99618 2.56100
 2901 53.32451 111.00000 7.99618 2.56100
 2902 58.32212 113.50000 11.15467 2.56100
 2903 58.32212 113.50000 11.15467 2.56100
 2904 58.32212 113.50000 11.15467 2.56100
 2905 58.32212 113.50000 11.15467 2.56100
 2906 51.97516 108.00000 0.00000 0.00000
 2907 51.97516 108.00000 0.00000 0.00000
 2908 51.97516 112.00000 0.00000 0.00000
 2909 51.97516 112.00000 0.00000 0.00000
 2910 58.32212 113.60000 11.15467 2.56100
 2911 57.97229 115.00000 7.99618 2.56100
 2912 53.32451 114.00000 7.99618 2.56100
 2913 58.32212 112.00000 11.15467 2.56100
 2914 58.32212 112.00000 11.15467 2.56100
 2915 58.32212 112.00000 11.15467 2.56100
 2916 58.32212 112.00000 11.15467 2.56100
 2917 58.32212 112.00000 11.15467 2.56100
 2918 58.32212 112.00000 11.15467 2.56100
 2919 58.32212 112.00000 11.15467 2.56100
 2920 58.32212 112.00000 11.15467 2.56100
 2921 58.32212 113.50000 11.15467 2.56100
 2922 51.97516 108.00000 0.00000 0.00000
 2923 34.48352 110.10000 22.51923 2.17900
 2924 34.48352 110.10000 22.51923 2.17900
 2925 34.48352 110.10000 22.51923 2.17900
 2926 34.48352 110.10000 22.51923 2.17900
 2927 34.48352 110.10000 22.51923 2.17900
 2928 34.48352 110.10000 22.51923 2.17900
 2929 34.48352 110.10000 22.51923 2.17900
 2930 34.48352 110.10000 22.51923 2.17900
 2931 34.48352 110.10000 22.51923 2.17900
 2932 34.48352 110.10000 22.51923 2.17900
 2933 34.48352 110.10000 22.51923 2.17900
 2934 34.48352 110.10000 22.51923 2.17900
 2935 34.48352 110.10000 22.51923 2.17900
 2936 34.48352 110.10000 22.51923 2.17900
 2937 34.48352 110.10000 22.51923 2.17900
 2938 33.41403 110.10000 22.51923 2.17900
 2939 33.41403 110.10000 22.51923 2.17900
 2940 33.41403 110.10000 22.51923 2.17900
 2941 33.41403 110.10000 22.51923 2.17900
 2942 33.41403 110.10000 22.51923 2.17900
 2943 33.41403 110.10000 22.51923 2.17900
 2944 33.41403 110.10000 22.51923 2.17900
 2945 33.41403 110.10000 22.51923 2.17900
 2946 33.41403 110.10000 22.51923 2.17900
 2947 49.97611 109.50000 0.00000 0.00000
 2948 49.97611 109.50000 0.00000 0.00000
 2949 32.98423 109.50000 29.98567 2.16300
 2950 34.48352 110.10000 22.51923 2.17900
 2951 34.48352 110.10000 22.51923 2.17900
 2952 34.48352 110.10000 22.51923 2.17900
 2953 34.48352 110.10000 22.51923 2.17900
 2954 33.41403 110.10000 22.51923 2.17900
 2955 26.48734 110.10000 22.51923 2.17900
 2956 34.58347 110.10000 22.51923 2.17900
 2957 34.58347 110.10000 22.51923 2.17900
 2958 34.48352 110.10000 22.51923 2.17900
 2959 34.48352 110.10000 22.51923 2.17900
 2960 34.48352 110.10000 22.51923 2.17900
 2961 34.48352 110.10000 22.51923 2.17900
 2962 34.48352 110.10000 22.51923 2.17900
 2963 34.48352 110.10000 22.51923 2.17900
 2964 32.98423 109.50000 29.98567 2.16300
 2965 69.96656 113.50000 0.00000 0.00000
 2966 69.96656 113.50000 0.00000 0.00000
 2967 69.96656 113.50000 0.00000 0.00000
 2968 69.96656 113.50000 0.00000 0.00000
 2969 79.96178 116.50000 0.00000 0.00000
 2970 49.97611 120.00000 0.00000 0.00000
 2971 49.97611 120.00000 0.00000 0.00000
 2972 49.97611 120.00000 0.00000 0.00000
 2973 79.96178 122.50000 0.00000 0.00000
 2974 47.97707 108.00000 0.00000 0.00000
 2975 47.97707 108.00000 0.00000 0.00000
 2976 51.47539 109.50000 0.00000 0.00000
 2977 33.98376 123.00000 0.00000 0.00000
 2978 34.98328 117.00000 0.00000 0.00000
 2979 34.98328 117.00000 0.00000 0.00000
 2980 34.98328 117.00000 0.00000 0.00000
 2981 35.48304 109.00000 5.39742 1.80200
 2982 35.48304 109.00000 5.39742 1.80200
 2983 35.48304 109.00000 5.39742 1.80200
 2984 35.48304 109.00000 5.39742 1.80200
 2985 35.48304 109.00000 5.39742 1.80200
 2986 35.48304 109.00000 5.39742 1.80200
 2987 35.48304 108.40000 5.39742 1.80200
 2988 44.97850 110.00000 0.00000 0.00000
 2989 44.97850 110.00000 0.00000 0.00000
 2990 44.97850 106.00000 0.00000 0.00000
 2991 44.97850 111.50000 0.00000 0.00000
 2992 44.97850 109.00000 0.00000 0.00000
 2993 44.97850 109.00000 0.00000 0.00000
 2994 44.97850 111.50000 0.00000 0.00000
 2995 44.97850 103.00000 0.00000 0.00000
 2996 44.97850 103.00000 0.00000 0.00000
 2997 44.97850 103.00000 0.00000 0.00000
 2998 44.97850 103.00000 0.00000 0.00000
 2999 44.97850 103.00000 0.00000 0.00000
 3000 75.66383 107.00000 0.00000 0.00000
 3001 75.66383 108.00000 0.00000 0.00000
 3002 75.66383 110.10000 0.00000 0.00000
 3003 75.66383 110.10000 0.00000 0.00000
 3004 75.66383 110.10000 0.00000 0.00000
 3005 75.66383 110.10000 0.00000 0.00000
 3006 75.66383 110.10000 0.00000 0.00000
 3007 75.66383 110.10000 0.00000 0.00000
 3008 49.97611 106.00000 0.00000 0.00000
 3009 75.66383 110.10000 0.00000 0.00000
 3010 75.66383 110.10000 0.00000 0.00000
 3011 75.66383 110.10000 0.00000 0.00000
 3012 75.66383 108.00000 0.00000 0.00000
 3013 75.66383 113.00000 0.00000 0.00000
 3014 75.66383 113.00000 0.00000 0.00000
 3015 75.66383 110.10000 0.00000 0.00000
 3016 75.66383 110.10000 0.00000 0.00000
 3017 39.98089 114.00000 49.97611 2.38800
 3018 39.98089 114.00000 49.97611 2.38800
 3019 39.98089 114.00000 49.97611 2.38800
 3020 39.98089 114.00000 49.97611 2.38800
 3021 39.98089 114.00000 49.97611 2.38800
 3022 79.96178 121.00000 0.00000 0.00000
 3023 44.97850 111.50000 0.00000 0.00000
 3024 44.97850 111.50000 0.00000 0.00000
 3025 44.97850 109.00000 0.00000 0.00000
 3026 44.97850 109.00000 0.00000 0.00000
 3027 44.97850 111.50000 0.00000 0.00000
 3028 44.97850 111.50000 0.00000 0.00000
 3029 44.97850 111.50000 0.00000 0.00000
 3030 44.97850 111.50000 0.00000 0.00000
 3031 44.97850 111.50000 0.00000 0.00000
 3032 44.97850 111.50000 0.00000 0.00000
 3033 44.97850 109.00000 0.00000 0.00000
 3034 44.97850 105.00000 0.00000 0.00000
 3035 44.97850 105.00000 0.00000 0.00000
 3036 44.97850 109.00000 0.00000 0.00000
 3037 44.97850 105.00000 0.00000 0.00000
 3038 44.97850 109.00000 0.00000 0.00000
 3039 44.97850 109.00000 0.00000 0.00000
 3040 44.97850 109.00000 0.00000 0.00000
 3041 44.97850 109.00000 0.00000 0.00000
 3042 44.97850 109.00000 0.00000 0.00000
 3043 44.97850 106.00000 0.00000 0.00000
 3044 44.97850 106.00000 0.00000 0.00000
 3045 75.66383 110.10000 0.00000 0.00000
 3046 75.66383 110.10000 0.00000 0.00000
 3047 75.66383 110.10000 0.00000 0.00000
 3048 49.97611 109.00000 0.00000 0.00000
 3049 49.97611 109.00000 0.00000 0.00000
 3050 49.97611 109.00000 0.00000 0.00000
 3051 49.97611 109.00000 0.00000 0.00000
 3052 49.97611 106.00000 0.00000 0.00000
 3053 49.97611 106.00000 0.00000 0.00000
 3054 49.97611 106.00000 0.00000 0.00000
 3055 49.97611 106.00000 0.00000 0.00000
 3056 49.97611 106.00000 0.00000 0.00000
 3057 49.97611 106.00000 0.00000 0.00000
 3058 49.97611 106.00000 0.00000 0.00000
 3059 57.47253 106.00000 0.00000 0.00000
 3060 44.97850 116.50000 0.00000 0.00000
 3061 44.97850 116.50000 0.00000 0.00000
 3062 44.97850 113.00000 0.00000 0.00000
 3063 99.95222 132.00000 69.96656 2.22500
 3064 89.95700 110.00000 0.00000 0.00000
 3065 89.95700 112.00000 0.00000 0.00000
 3066 89.95700 112.00000 0.00000 0.00000
 3067 89.95700 110.00000 0.00000 0.00000
 3068 89.95700 112.00000 0.00000 0.00000
 3069 94.95461 109.70000 0.00000 0.00000
 3070 94.95461 109.70000 0.00000 0.00000
 3071 94.95461 109.70000 0.00000 0.00000
 3072 94.95461 109.70000 0.00000 0.00000
 3073 94.95461 109.70000 0.00000 0.00000
 3074 94.95461 109.70000 0.00000 0.00000
 3075 94.95461 109.70000 0.00000 0.00000
 3076 94.95461 109.70000 0.00000 0.00000
 3077 94.95461 109.70000 0.00000 0.00000
 3078 94.95461 109.70000 0.00000 0.00000
 3079 94.95461 109.70000 0.00000 0.00000
 3080 94.95461 109.70000 0.00000 0.00000
 3081 94.95461 109.70000 0.00000 0.00000
 3082 49.97611 111.50000 0.00000 0.00000
 3083 49.97611 111.50000 0.00000 0.00000
 3084 49.97611 109.20000 0.00000 0.00000
 3085 49.97611 109.20000 0.00000 0.00000
 3086 49.97611 109.20000 0.00000 0.00000
 3087 54.97372 108.89000 0.00000 0.00000
 3088 54.97372 108.89000 0.00000 0.00000
 3089 54.97372 108.89000 0.00000 0.00000
 3090 54.97372 108.89000 0.00000 0.00000
 3091 54.97372 108.89000 0.00000 0.00000
 3092 54.97372 108.89000 0.00000 0.00000
 3093 44.97850 109.50000 0.00000 0.00000
 3094 44.97850 109.50000 0.00000 0.00000
 3095 44.97850 109.50000 0.00000 0.00000
 3096 59.97133 109.50000 0.00000 0.00000
 3097 59.97133 109.50000 0.00000 0.00000
 3098 59.97133 109.50000 0.00000 0.00000
 3099 54.97372 108.89000 0.00000 0.00000
 3100 54.97372 108.89000 0.00000 0.00000
 3101 54.97372 108.89000 0.00000 0.00000
 3102 44.97850 109.50000 0.00000 0.00000
 3103 44.97850 109.50000 0.00000 0.00000
 3104 44.97850 109.50000 0.00000 0.00000
 3105 44.97850 109.50000 0.00000 0.00000
 3106 59.97133 109.50000 0.00000 0.00000
 3107 59.97133 109.50000 0.00000 0.00000
 3108 59.97133 109.50000 0.00000 0.00000
 3109 59.97133 109.50000 0.00000 0.00000
 3110 59.97133 109.50000 0.00000 0.00000
 3111 59.97133 109.50000 0.00000 0.00000
 3112 57.97229 109.50000 11.15467 2.56100
 3113 34.98328 111.40000 22.51923 2.17900
 3114 38.48161 106.80000 5.39742 1.80200
 3115 44.97850 111.10000 0.00000 0.00000
 3116 94.95461 111.00000 0.00000 0.00000
 3117 69.96656 107.30000 0.00000 0.00000
 3118 33.41403 110.10000 22.51923 2.17900
 3119 53.32451 114.00000 7.99618 2.56100
 3120 34.48352 110.10000 22.51923 2.17900
 3121 44.97850 111.50000 0.00000 0.00000
 3122 34.98328 111.40000 22.51923 2.17900
 3123 34.98328 111.40000 22.51923 2.17900
 3124 57.97229 109.50000 11.15467 2.56100
 3125 57.97229 109.50000 11.15467 2.56100
 3126 44.97850 111.10000 0.00000 0.00000
 3127 94.95461 111.00000 0.00000 0.00000
 3128 69.96656 107.30000 0.00000 0.00000
 3129 59.97133 109.50000 0.00000 0.00000
 3130 44.97850 106.50000 0.00000 0.00000
 3131 94.95461 109.70000 0.00000 0.00000
 3132 89.95700 112.00000 0.00000 0.00000
 3133 44.97850 111.10000 0.00000 0.00000
 3134 44.97850 111.10000 0.00000 0.00000
 3135 44.97850 111.10000 0.00000 0.00000
 3136 44.97850 111.10000 0.00000 0.00000
 3137 44.97850 111.10000 0.00000 0.00000
 3138 44.97850 108.00000 0.00000 0.00000
 3139 44.97850 108.00000 0.00000 0.00000
 3140 75.66383 110.10000 0.00000 0.00000
 3141 75.66383 110.10000 0.00000 0.00000
 3142 75.66383 110.10000 0.00000 0.00000
 3143 75.66383 110.10000 0.00000 0.00000
 3144 75.66383 110.10000 0.00000 0.00000
 3145 75.66383 110.10000 0.00000 0.00000
 3146 75.66383 110.10000 0.00000 0.00000
 3147 75.66383 110.10000 0.00000 0.00000
 3148 75.66383 110.10000 0.00000 0.00000
 3149 75.66383 110.10000 0.00000 0.00000
 3150 75.66383 110.10000 0.00000 0.00000
 3151 75.66383 110.10000 0.00000 0.00000
 3152 75.66383 110.10000 0.00000 0.00000
 3153 75.66383 110.10000 0.00000 0.00000
 3154 44.97850 116.50000 0.00000 0.00000
 3155 44.97850 116.50000 0.00000 0.00000
 3156 69.96656 107.30000 0.00000 0.00000
 3157 69.96656 107.30000 0.00000 0.00000
 3158 54.97372 108.89000 0.00000 0.00000
 3159 54.97372 108.89000 0.00000 0.00000
 3160 49.97611 109.00000 0.00000 0.00000
 3161 49.97611 109.00000 0.00000 0.00000
 3162 49.97611 109.00000 0.00000 0.00000
 3163 94.95461 111.00000 0.00000 0.00000
 3164 94.95461 111.00000 0.00000 0.00000
 3165 57.97229 109.50000 11.15467 2.56100
 3166 57.97229 109.50000 11.15467 2.56100
 3167 57.97229 109.50000 11.15467 2.56100
 3168 57.97229 109.50000 11.15467 2.56100
 3169 57.97229 109.50000 11.15467 2.56100
 3170 57.97229 109.50000 11.15467 2.56100
 3171 58.32212 113.50000 11.15467 2.56100
 3172 58.32212 113.50000 11.15467 2.56100
 3173 34.98328 111.40000 22.51923 2.17900
 3174 34.98328 111.40000 22.51923 2.17900
 3175 34.98328 111.40000 22.51923 2.17900
 3176 34.98328 111.40000 22.51923 2.17900
 3177 34.98328 111.40000 22.51923 2.17900
 3178 34.98328 111.40000 22.51923 2.17900
 3179 34.98328 111.40000 22.51923 2.17900
 3180 34.98328 111.40000 22.51923 2.17900
 3181 34.98328 111.40000 22.51923 2.17900
 3182 34.98328 111.40000 22.51923 2.17900
 3183 34.98328 111.40000 22.51923 2.17900
 3184 33.41403 110.10000 22.51923 2.17900
 3185 33.41403 110.10000 22.51923 2.17900
 3186 33.41403 110.10000 22.51923 2.17900
 3187 34.48352 110.10000 22.51923 2.17900
 3188 38.48161 106.80000 5.39742 1.80200
 3189 59.97133 109.50000 0.00000 0.00000
 3190 44.97850 105.00000 0.00000 0.00000
 3191 94.95461 111.00000 0.00000 0.00000
 3192 89.95700 112.00000 0.00000 0.00000
 3193 58.32212 112.00000 11.15467 2.56100
 3194 58.32212 112.00000 11.15467 2.56100
 3195 58.32212 112.00000 11.15467 2.56100
 3196 44.97850 111.50000 0.00000 0.00000
 3197 44.97850 111.50000 0.00000 0.00000
 3198 34.48352 110.10000 22.51923 2.17900
 3199 34.48352 110.10000 22.51923 2.17900
 3200 34.48352 110.10000 22.51923 2.17900
 3201 44.97850 107.00000 0.00000 0.00000
 3202 44.97850 107.00000 0.00000 0.00000
 3203 44.97850 107.00000 0.00000 0.00000
 3204 44.97850 107.00000 0.00000 0.00000
 3205 44.97850 109.00000 0.00000 0.00000
 3206 44.97850 109.00000 0.00000 0.00000
 3207 44.97850 109.00000 0.00000 0.00000
 3208 75.66383 107.50000 0.00000 0.00000
 3209 75.66383 107.50000 0.00000 0.00000
 3210 89.95700 110.00000 0.00000 0.00000
 3211 89.95700 110.00000 0.00000 0.00000
 3212 59.97133 109.50000 0.00000 0.00000
 3213 59.97133 109.50000 0.00000 0.00000
 3214 59.97133 109.50000 0.00000 0.00000
 3215 59.97133 109.50000 0.00000 0.00000
 3216 98.85275 111.60000 0.00000 0.00000
 3217 119.94267 120.00000 0.00000 0.00000
 3218 98.85275 113.23000 0.00000 0.00000
 3219 98.85275 104.41300 0.00000 0.00000
 3220 48.07702 108.00000 0.00000 0.00000
 3221 29.98567 115.00000 39.98089 2.35000
 3222 19.99044 120.00000 34.98328 2.33000
 3223 19.99044 120.00000 34.98328 2.33000
 3224 19.99044 120.00000 34.98328 2.33000
 3225 14.99283 109.00000 26.98710 1.90000
 3226 14.99283 109.00000 26.98710 1.90000
 3227 14.99283 110.10000 26.98710 1.90000
 3228 129.93789 109.47000 34.98328 2.45000
 3229 84.95939 98.00000 0.00000 0.00000
 3230 94.95461 109.70000 0.00000 0.00000
 3231 44.97850 111.50000 0.00000 0.00000
 3232 89.95700 112.00000 0.00000 0.00000
 3233 59.97133 109.50000 0.00000 0.00000
 3234 44.97850 106.50000 0.00000 0.00000
 3235 94.95461 109.70000 0.00000 0.00000
 3236 49.97611 111.50000 0.00000 0.00000
 3237 94.95461 111.00000 0.00000 0.00000
 3238 89.95700 112.00000 0.00000 0.00000
 3239 34.98328 111.40000 22.51923 2.17900
 3240 57.97229 109.50000 11.15467 2.56100
 3241 44.97850 111.10000 0.00000 0.00000
 3242 44.97850 106.50000 0.00000 0.00000
 3243 59.97133 109.50000 0.00000 0.00000
 3244 69.96656 107.30000 0.00000 0.00000
 3245 34.98328 111.40000 22.51923 2.17900
 3246 69.96656 107.30000 0.00000 0.00000
 3247 34.98328 111.40000 22.51923 2.17900
 3248 58.32212 113.00000 11.15467 2.56100
 3249 34.48352 110.10000 22.51923 2.17900
 3250 33.41403 110.10000 22.51923 2.17900
 3251 44.97850 106.00000 0.00000 0.00000
 3252 59.97133 109.00000 0.00000 0.00000
 3253 94.95461 109.70000 0.00000 0.00000
 3254 59.97133 109.50000 0.00000 0.00000
 3255 44.97850 109.00000 0.00000 0.00000
 3256 89.95700 110.00000 0.00000 0.00000
 3257 59.97133 109.50000 0.00000 0.00000
 3258 59.97133 109.50000 0.00000 0.00000
 3259 44.97850 110.50000 0.00000 0.00000
 3260 49.97611 109.50000 0.00000 0.00000
 3261 44.97850 111.10000 0.00000 0.00000
 3262 49.97611 109.20000 0.00000 0.00000
 3263 49.97611 111.50000 0.00000 0.00000
 3264 89.95700 112.00000 0.00000 0.00000
 3265 75.66383 110.10000 0.00000 0.00000
 3266 44.97850 105.00000 0.00000 0.00000
 3267 59.97133 109.50000 0.00000 0.00000
 3268 89.95700 112.00000 0.00000 0.00000
 3269 44.97850 105.00000 0.00000 0.00000
 3270 49.97611 109.50000 0.00000 0.00000
 3271 44.97850 110.50000 0.00000 0.00000
 3272 44.97850 110.50000 0.00000 0.00000
 3273 59.97133 109.50000 0.00000 0.00000
 3274 44.97850 110.50000 0.00000 0.00000
 3275 44.97850 106.00000 0.00000 0.00000
 3276 94.95461 112.20000 0.00000 0.00000
 3277 89.95700 112.00000 0.00000 0.00000
 3278 75.66383 110.10000 0.00000 0.00000
 3279 44.97850 106.50000 0.00000 0.00000
 3280 44.97850 106.00000 0.00000 0.00000
 3281 94.95461 111.00000 0.00000 0.00000
 3282 49.97611 109.20000 0.00000 0.00000
 3283 44.97850 109.00000 0.00000 0.00000
 3284 14.99283 109.00000 26.98710 1.90000
 3285 94.95461 109.70000 0.00000 0.00000
 3286 44.97850 106.00000 0.00000 0.00000
 3287 44.97850 106.00000 0.00000 0.00000
 3288 94.95461 109.70000 0.00000 0.00000
 3289 59.97133 109.50000 0.00000 0.00000
 3290 59.97133 109.50000 0.00000 0.00000
 3291 44.97850 106.00000 0.00000 0.00000
 3292 94.95461 109.70000 0.00000 0.00000
 3293 53.32451 111.00000 7.99618 2.56100
 3294 53.32451 111.00000 7.99618 2.56100
 3295 53.32451 111.00000 7.99618 2.56100
 3296 75.66383 110.10000 0.00000 0.00000
 3297 54.97372 109.00000 19.99044 2.32600
 3298 69.96656 125.00000 19.99044 2.44200
 3299 32.98423 109.50000 29.98567 2.16300
 3300 89.95700 125.90000 159.92355 2.25760
 3301 39.98089 109.60000 29.98567 2.26510
 3302 84.95939 103.00000 0.00000 0.00000
 3303 47.97707 118.00000 0.00000 0.00000
 3304 47.97707 111.00000 0.00000 0.00000
 3305 49.97611 113.00000 0.00000 0.00000
 3306 51.97516 109.00000 0.00000 0.00000
 3307 51.97516 109.00000 0.00000 0.00000
 3308 35.98280 109.50000 0.00000 0.00000
 3309 58.32212 113.60000 11.15467 2.56100
 3310 58.32212 113.60000 11.15467 2.56100
 3311 58.32212 113.60000 11.15467 2.56100
 3312 29.98567 109.50000 19.99044 2.07400
 3313 44.97850 107.50000 34.98328 2.10100
 3314 114.94505 109.70000 0.00000 0.00000
 3315 67.66765 110.00000 0.00000 0.00000
 3316 43.97898 109.50000 0.00000 0.00000
 3317 114.94505 109.70000 0.00000 0.00000
 3318 109.94744 109.00000 0.00000 0.00000
 3319 89.95700 106.00000 0.00000 0.00000
 3320 79.96178 106.00000 0.00000 0.00000
 3321 45.17840 107.24000 0.00000 0.00000
 3322 34.51350 110.10000 22.51923 2.17900
 3323 34.51350 110.10000 22.51923 2.17900
 3324 89.95700 117.80000 0.00000 0.00000
 3325 59.97133 133.00000 0.00000 0.00000
 3326 89.95700 110.10000 0.00000 0.00000
 3327 59.97133 127.40000 0.00000 0.00000
 3328 59.97133 121.00000 0.00000 0.00000
 3329 59.97133 110.70000 0.00000 0.00000
 3330 99.95222 105.70000 0.00000 0.00000
 3331 99.95222 110.00000 0.00000 0.00000
 3332 119.94267 104.60000 0.00000 0.00000
 3333 99.95222 113.40000 0.00000 0.00000
 3334 99.95222 106.30000 0.00000 0.00000
 3335 99.95222 126.90000 0.00000 0.00000
 3336 99.95222 129.00000 0.00000 0.00000
 3337 37.98184 113.50000 0.00000 0.00000
 3338 49.97611 130.70000 0.00000 0.00000
 3339 49.97611 118.60000 0.00000 0.00000
 3340 39.98089 121.50000 0.00000 0.00000
 3341 30.98519 117.00000 0.00000 0.00000
 3342 38.98137 124.80000 0.00000 0.00000
 3343 38.98137 121.80000 0.00000 0.00000
 3344 29.98567 129.40000 0.00000 0.00000
 3345 29.98567 125.00000 0.00000 0.00000
 3346 69.96656 131.10000 0.00000 0.00000
 3347 69.96656 122.20000 0.00000 0.00000
 3348 89.95700 109.40000 0.00000 0.00000
 3349 69.96656 129.90000 0.00000 0.00000
 3350 69.96656 119.60000 0.00000 0.00000
 3351 69.96656 107.80000 0.00000 0.00000
 3352 99.95222 104.60000 0.00000 0.00000
 3353 99.95222 111.40000 0.00000 0.00000
 3354 119.94267 103.80000 0.00000 0.00000
 3355 99.95222 113.00000 0.00000 0.00000
 3356 99.95222 107.20000 0.00000 0.00000
 3357 139.93311 125.50000 0.00000 0.00000
 3358 124.94028 129.00000 0.00000 0.00000
 3359 44.97850 113.30000 0.00000 0.00000
 3360 44.97850 115.60000 0.00000 0.00000
 3361 94.95461 115.40000 0.00000 0.00000
 3362 94.95461 122.40000 0.00000 0.00000
 3363 49.97611 127.50000 0.00000 0.00000
 3364 49.97611 124.70000 0.00000 0.00000
 3365 39.98089 122.20000 0.00000 0.00000
 3366 29.98567 124.60000 0.00000 0.00000
 3367 29.98567 129.30000 0.00000 0.00000
 3368 49.97611 124.10000 0.00000 0.00000
 3369 49.97611 116.80000 0.00000 0.00000
 3370 84.95939 119.10000 0.00000 0.00000
 3371 84.95939 119.30000 0.00000 0.00000
 3372 84.95939 117.80000 0.00000 0.00000
 3373 84.95939 122.90000 0.00000 0.00000
 3374 36.98232 121.20000 0.00000 0.00000
 3375 36.98232 114.70000 0.00000 0.00000
 3376 129.93789 119.40000 0.00000 0.00000
 3377 129.93789 123.80000 0.00000 0.00000
 3378 80.96130 122.30000 0.00000 0.00000
 3379 80.96130 118.40000 0.00000 0.00000
 3380 37.98184 120.10000 0.00000 0.00000
 3381 37.98184 122.10000 0.00000 0.00000
 3382 43.97898 115.00000 0.00000 0.00000
 3383 69.96656 122.00000 0.00000 0.00000
 3384 49.97611 114.00000 0.00000 0.00000
 3385 49.97611 130.20000 0.00000 0.00000
 3386 69.96656 112.60000 0.00000 0.00000
 3387 99.95222 117.60000 0.00000 0.00000
 3388 99.95222 123.60000 0.00000 0.00000
 3389 40.48065 122.00000 0.00000 0.00000
 3390 31.98471 116.00000 0.00000 0.00000
 3391 99.95222 121.60000 0.00000 0.00000
 3392 99.95222 124.40000 0.00000 0.00000
 3393 40.48065 114.40000 0.00000 0.00000
 3394 40.48065 115.40000 0.00000 0.00000
 3395 99.95222 121.90000 0.00000 0.00000
 3396 99.95222 125.50000 0.00000 0.00000
 3397 29.98567 120.30000 0.00000 0.00000
 3398 29.98567 114.30000 0.00000 0.00000
 3399 69.96656 113.50000 0.00000 0.00000
 3400 119.94267 116.70000 0.00000 0.00000
 3401 119.94267 123.60000 0.00000 0.00000
 3402 99.95222 124.60000 0.00000 0.00000
 3403 37.98184 118.70000 0.00000 0.00000
 3404 37.98184 124.60000 0.00000 0.00000
 3405 29.98567 122.10000 0.00000 0.00000
 3406 69.96656 116.00000 0.00000 0.00000
 3407 69.96656 122.00000 0.00000 0.00000
 3408 69.96656 115.40000 0.00000 0.00000
 3409 69.96656 120.50000 0.00000 0.00000
 3410 69.96656 125.90000 0.00000 0.00000
 3411 69.96656 127.80000 0.00000 0.00000
 3412 69.96656 125.90000 0.00000 0.00000
 3413 69.96656 126.90000 0.00000 0.00000
 3414 69.96656 125.90000 0.00000 0.00000
 3415 69.96656 126.90000 0.00000 0.00000
 3416 69.96656 113.70000 0.00000 0.00000
 3417 44.97850 118.40000 0.00000 0.00000
 3418 44.97850 119.60000 0.00000 0.00000
 3419 44.97850 120.00000 0.00000 0.00000
 3420 44.97850 115.90000 0.00000 0.00000
 3421 44.97850 126.10000 0.00000 0.00000
 3422 44.97850 127.60000 0.00000 0.00000
 3423 44.97850 126.50000 0.00000 0.00000
 3424 44.97850 126.30000 0.00000 0.00000
 3425 109.94744 108.00000 0.00000 0.00000
 3426 109.94744 112.00000 0.00000 0.00000
 3427 109.94744 113.70000 0.00000 0.00000
 3428 109.94744 111.00000 0.00000 0.00000
 3429 109.94744 108.00000 0.00000 0.00000
 3430 109.94744 112.00000 0.00000 0.00000
 3431 109.94744 113.70000 0.00000 0.00000
 3432 109.94744 111.00000 0.00000 0.00000
 3433 42.97946 111.00000 0.00000 0.00000
 3434 42.97946 111.00000 0.00000 0.00000
 3435 34.58347 110.10000 22.51923 2.17900
 3436 34.58347 110.10000 22.51923 2.17900
 3437 33.41403 110.10000 0.00000 0.00000
 3438 45.87807 108.89000 0.00000 0.00000
 3439 33.41403 110.10000 22.51923 2.17900
 3440 33.41403 110.10000 22.51923 2.17900
 3441 34.58347 110.10000 22.51923 2.17900
 3442 33.41403 110.10000 22.51923 2.17900
 3443 33.41403 110.10000 0.00000 0.00000
 3444 33.41403 110.10000 0.00000 0.00000
 3445 33.41403 110.10000 0.00000 0.00000
 3446 59.97133 109.50000 0.00000 0.00000
 3447 19.99044 120.00000 34.98328 2.33000
 3448 29.98567 115.00000 39.98089 2.35000
 3449 29.98567 115.00000 39.98089 2.35000
 3450 57.47253 106.00000 0.00000 0.00000
 3451 57.47253 106.00000 0.00000 0.00000
 3452 79.96178 104.30000 0.00000 0.00000
 3453 79.96178 104.30000 0.00000 0.00000
 3454 48.07702 108.00000 0.00000 0.00000
 3455 48.07702 108.00000 0.00000 0.00000
 3456 98.85275 108.23000 0.00000 0.00000
 3457 98.85275 108.23000 0.00000 0.00000
 3458 98.85275 104.00000 0.00000 0.00000
 3459 98.85275 104.00000 0.00000 0.00000
 3460 75.66383 110.10000 0.00000 0.00000
 3461 35.48304 108.40000 5.39742 1.80200
 3462 109.94744 108.00000 0.00000 0.00000
 3463 89.95700 102.00000 0.00000 0.00000
 3464 79.96178 100.00000 0.00000 0.00000
 3465 59.97133 102.00000 7.99618 2.56100
 3466 59.97133 102.00000 7.99618 2.56100
 3467 99.95222 104.00000 0.00000 0.00000
 3468 45.17840 107.24000 0.00000 0.00000
 3469 45.17840 107.24000 0.00000 0.00000
 3470 39.98089 108.00000 0.00000 0.00000
 3471 33.38404 110.10000 22.51923 2.17900
 3472 33.38404 110.10000 22.51923 2.17900
 3473 34.48352 110.10000 22.51923 2.17900
 3474 34.51350 110.10000 22.51923 2.17900
 3475 34.51350 110.10000 22.51923 2.17900
 3476 35.48304 109.00000 5.39742 1.80200
 3477 35.48304 109.00000 5.39742 1.80200
 3478 109.94744 115.00000 0.00000 0.00000
 3479 99.95222 110.00000 0.00000 0.00000
 3480 89.95700 106.00000 0.00000 0.00000
 3481 109.94744 96.00000 0.00000 0.00000
 3482 59.97133 100.00000 7.99618 2.56100
 3483 45.17840 107.24000 0.00000 0.00000
 3484 45.17840 107.24000 0.00000 0.00000
 3485 33.38404 110.10000 22.51923 2.17900
 3486 35.48304 109.00000 5.39742 1.80200
 3487 89.95700 108.20000 0.00000 0.00000
 3488 89.95700 108.20000 0.00000 0.00000
 3489 44.97850 110.00000 0.00000 0.00000
 3490 58.32212 113.60000 11.15467 2.56100
 3491 69.96656 108.40000 0.00000 0.00000
 3492 114.94505 109.70000 0.00000 0.00000
 3493 114.94505 109.70000 0.00000 0.00000
 3494 114.94505 109.70000 0.00000 0.00000
 3495 19.99044 120.00000 34.98328 2.33000
 3496 19.99044 120.00000 34.98328 2.33000
 3497 19.99044 120.00000 34.98328 2.33000
 3498 19.99044 120.00000 34.98328 2.33000
 3499 19.99044 120.00000 34.98328 2.33000
 3500 19.99044 120.00000 34.98328 2.33000
 3501 34.48352 110.10000 22.51923 2.17900
 3502 59.97133 109.50000 0.00000 0.00000
 3503 57.47253 106.00000 0.00000 0.00000
 3504 35.48304 109.00000 5.39742 1.80200
 3505 34.51350 110.10000 22.51923 2.17900
 3506 59.97133 109.50000 0.00000 0.00000
 3507 59.97133 109.50000 0.00000 0.00000
 3508 75.66383 110.10000 0.00000 0.00000
 3509 89.95700 108.20000 0.00000 0.00000
 3510 45.87807 108.89000 0.00000 0.00000
 3511 75.66383 110.00000 0.00000 0.00000
 3512 75.66383 110.10000 0.00000 0.00000
 3513 59.97133 109.50000 0.00000 0.00000
 3514 57.47253 109.00000 0.00000 0.00000
 3515 89.95700 108.20000 0.00000 0.00000
 3516 89.95700 108.20000 0.00000 0.00000
 3517 89.95700 110.00000 0.00000 0.00000
 3518 89.95700 110.00000 0.00000 0.00000
 3519 79.96178 108.40000 0.00000 0.00000
 3520 89.95700 108.00000 0.00000 0.00000
 3521 59.97133 109.50000 0.00000 0.00000
 3522 57.47253 109.00000 0.00000 0.00000
 3523 34.51350 110.10000 22.51923 2.17900
 3524 34.51350 110.10000 22.51923 2.17900
 3525 19.99044 120.00000 34.98328 2.33000
 3526 19.99044 120.00000 34.98328 2.33000
 3527 98.85275 111.60000 0.00000 0.00000
 3528 98.85275 111.60000 0.00000 0.00000
 3529 119.94267 120.00000 0.00000 0.00000
 3530 119.94267 120.00000 0.00000 0.00000
 3531 59.97133 109.50000 0.00000 0.00000
 3532 98.85275 111.60000 0.00000 0.00000
 3533 119.94267 106.25000 0.00000 0.00000
 3534 58.32212 113.60000 11.15467 2.56100
 3535 14.99283 140.00000 -39.98089 2.80000
 3536 19.99044 120.00000 34.98328 2.33000
 3537 14.99283 140.00000 -39.98089 2.80000
 3538 44.97850 140.00000 39.98089 3.15000
 3539 14.99283 140.00000 -39.98089 2.80000
 3540 29.98567 120.00000 39.98089 2.35000
 3541 48.07702 100.00000 0.00000 0.00000
 3542 98.85275 108.23000 0.00000 0.00000
 3543 79.96178 104.30000 0.00000 0.00000
 3544 88.85753 111.60000 0.00000 0.00000
 3545 88.85753 105.00000 0.00000 0.00000
 3546 103.95031 120.00000 0.00000 0.00000
 3547 103.95031 120.00000 0.00000 0.00000
 3548 69.96656 125.00000 19.99044 2.44200
 3549 69.96656 125.00000 19.99044 2.44200
 3550 69.96656 125.00000 19.99044 2.44200
 3551 89.95700 125.90000 159.92355 2.25760
 3552 39.98089 109.60000 29.98567 2.26510
 3553 39.98089 109.60000 29.98567 2.26510
 3554 39.98089 109.60000 29.98567 2.26510
 3555 32.98423 109.50000 29.98567 2.16300
 3556 32.98423 109.50000 29.98567 2.16300
 3557 51.97516 108.00000 0.00000 0.00000
 3558 51.97516 108.00000 0.00000 0.00000
 3559 51.97516 108.00000 0.00000 0.00000
 3560 54.97372 109.00000 19.99044 2.32600
 3561 54.97372 109.00000 19.99044 2.32600
 3562 54.97372 109.00000 19.99044 2.32600
 3563 49.97611 123.00000 209.89967 2.26200
 3564 39.98089 118.00000 49.97611 2.38800
 3565 39.98089 118.00000 49.97611 2.38800
 3566 99.95222 124.00000 69.96656 2.22500
 3567 99.95222 124.00000 69.96656 2.22500
 3568 39.98089 118.00000 49.97611 2.38800
 3569 54.97372 110.50000 0.00000 0.00000
 3570 54.97372 110.50000 0.00000 0.00000
 3571 54.97372 115.00000 0.00000 0.00000
 3572 75.66383 110.10000 0.00000 0.00000
 3573 75.66383 110.10000 0.00000 0.00000
 3574 75.66383 110.10000 0.00000 0.00000
 3575 75.66383 110.10000 0.00000 0.00000
 3576 75.66383 110.10000 0.00000 0.00000
 3577 75.66383 110.10000 0.00000 0.00000
 3578 75.66383 110.10000 0.00000 0.00000
 3579 75.66383 110.10000 0.00000 0.00000
 3580 75.66383 110.10000 0.00000 0.00000
 3581 75.66383 110.10000 0.00000 0.00000
 3582 75.66383 110.10000 0.00000 0.00000
 3583 75.66383 110.10000 0.00000 0.00000
 3584 35.48304 109.00000 5.39742 1.80200
 3585 35.48304 108.40000 5.39742 1.80200
 3586 59.97133 109.50000 0.00000 0.00000
 3587 59.97133 109.50000 0.00000 0.00000
 3588 59.97133 109.50000 0.00000 0.00000
 3589 59.97133 109.50000 0.00000 0.00000
 3590 59.97133 109.50000 0.00000 0.00000
 3591 59.97133 109.50000 0.00000 0.00000
 3592 19.99044 120.00000 34.98328 2.33000
 3593 19.99044 120.00000 34.98328 2.33000
 3594 19.99044 120.00000 34.98328 2.33000
 3595 19.99044 120.00000 34.98328 2.33000
 3596 19.99044 120.00000 34.98328 2.33000
 3597 19.99044 120.00000 34.98328 2.33000
 3598 29.98567 115.00000 39.98089 2.30000
 3599 79.96178 104.30000 0.00000 0.00000
 3600 98.85275 111.60000 0.00000 0.00000
 3601 48.07702 108.00000 0.00000 0.00000
 3602 79.96178 104.30000 0.00000 0.00000
 3603 98.85275 111.60000 0.00000 0.00000
 3604 48.07702 108.00000 0.00000 0.00000
 3605 119.94267 120.00000 0.00000 0.00000
 3606 98.85275 108.23000 0.00000 0.00000
 3607 39.98089 109.50000 26.98710 2.13000
 3608 39.98089 109.50000 26.98710 2.13000
 3609 23.98853 109.50000 27.98662 1.76700
 3610 23.98853 109.50000 27.98662 1.76700
 3611 59.97133 109.50000 25.98758 2.46600
 3612 59.97133 109.50000 25.98758 2.46600
 3613 59.97133 109.50000 25.98758 2.46600
 3614 33.41403 110.10000 22.51923 2.17900
 3615 33.41403 110.10000 22.51923 2.17900
 3616 34.48352 110.10000 22.51923 2.17900
 3617 34.48352 110.10000 22.51923 2.17900
 3618 34.48352 110.10000 22.51923 2.17900
 3619 26.48734 110.10000 22.51923 2.17900
 3620 26.48734 110.10000 22.51923 2.17900
 3621 34.58347 110.10000 22.51923 2.17900
 3622 33.41403 110.10000 22.51923 2.17900
 3623 34.58347 110.10000 22.51923 2.17900
 3624 37.48208 110.10000 22.51923 2.17900
 3625 49.97611 109.50000 0.00000 0.00000
 3626 34.98328 111.00000 0.00000 0.00000
 3627 67.66765 115.00000 0.00000 0.00000
 3628 67.66765 115.00000 0.00000 0.00000
 3629 32.98423 109.50000 3.99809 2.05600
 3630 29.98567 109.50000 19.99044 2.07400
 3631 40.98041 109.50000 0.00000 0.00000
 3632 67.66765 110.00000 0.00000 0.00000
 3633 44.97850 107.50000 34.98328 2.08360
 3634 53.32451 111.00000 7.99618 2.56100
 3635 43.67912 110.00000 0.00000 0.00000
 3636 67.66765 110.00000 0.00000 0.00000
 3637 51.47539 107.50000 0.00000 0.00000
 3638 58.32212 113.50000 11.15467 2.56100
 3639 53.32451 108.50000 7.99618 2.56100
 3640 58.32212 113.50000 11.15467 2.56100
 3641 58.32212 113.50000 11.15467 2.56100
 3642 58.32212 113.50000 11.15467 2.56100
 3643 58.32212 113.50000 11.15467 2.56100
 3644 58.32212 113.50000 11.15467 2.56100
 3645 58.32212 113.60000 11.15467 2.56100
 3646 57.97229 115.00000 7.99618 2.56100
 3647 58.32212 113.50000 11.15467 2.56100
 3648 57.47253 106.00000 0.00000 0.00000
 3649 57.47253 106.00000 0.00000 0.00000
 3650 57.47253 106.00000 0.00000 0.00000
 3651 75.66383 110.10000 0.00000 0.00000
 3652 75.66383 110.10000 0.00000 0.00000
 3653 75.66383 110.10000 0.00000 0.00000
 3654 75.66383 110.10000 0.00000 0.00000
 3655 75.66383 110.10000 0.00000 0.00000
 3656 45.87807 108.89000 0.00000 0.00000
 3657 45.87807 108.89000 0.00000 0.00000
 3658 45.87807 108.89000 0.00000 0.00000
 3659 129.93789 109.47000 34.98328 2.45000
 3660 84.95939 98.00000 0.00000 0.00000
 3661 14.99283 109.00000 26.98710 1.90000
 3662 14.99283 109.00000 26.98710 1.90000
 3663 47.97707 123.50000 0.00000 0.00000
 3664 47.97707 123.50000 0.00000 0.00000
 3665 47.97707 126.00000 0.00000 0.00000
 3666 46.97754 125.20000 0.00000 0.00000
 3667 51.97516 119.50000 0.00000 0.00000
 3668 41.97993 118.00000 0.00000 0.00000
 3669 39.98089 116.00000 0.00000 0.00000
 3670 21.98949 117.00000 0.00000 0.00000
 3671 44.97850 120.50000 0.00000 0.00000
 3672 55.47348 120.50000 0.00000 0.00000
 3673 18.99092 119.00000 0.00000 0.00000
 3674 31.98471 112.20000 0.00000 0.00000
 3675 31.98471 112.20000 0.00000 0.00000
 3676 44.97850 111.50000 0.00000 0.00000
 3677 41.97993 111.50000 0.00000 0.00000
 3678 29.98567 114.00000 0.00000 0.00000
 3679 34.48352 110.10000 22.51923 2.17900
 3680 34.48352 110.10000 22.51923 2.17900
 3681 34.48352 110.10000 22.51923 2.17900
 3682 26.48734 110.10000 22.51923 2.17900
 3683 26.48734 110.10000 22.51923 2.17900
 3684 26.48734 110.10000 22.51923 2.17900
 3685 34.58347 110.10000 22.51923 2.17900
 3686 33.41403 110.10000 22.51923 2.17900
 3687 33.41403 110.10000 22.51923 2.17900
 3688 34.58347 110.10000 22.51923 2.17900
 3689 37.48208 110.10000 22.51923 2.17900
 3690 35.48304 109.00000 5.39742 1.80200
 3691 35.48304 108.40000 5.39742 1.80200
 3692 58.32212 113.50000 11.15467 2.56100
 3693 58.32212 113.50000 11.15467 2.56100
 3694 53.32451 111.00000 7.99618 2.56100
 3695 58.32212 113.50000 11.15467 2.56100
 3696 53.32451 108.50000 7.99618 2.56100
 3697 58.32212 113.50000 11.15467 2.56100
 3698 58.32212 113.50000 11.15467 2.56100
 3699 58.32212 113.50000 11.15467 2.56100
 3700 58.32212 113.50000 11.15467 2.56100
 3701 58.32212 113.50000 11.15467 2.56100
 3702 58.32212 113.60000 11.15467 2.56100
 3703 57.97229 115.00000 7.99618 2.56100
 3704 53.32451 114.00000 7.99618 2.56100
 3705 53.32451 114.00000 7.99618 2.56100
 3706 53.32451 114.00000 7.99618 2.56100
 3707 53.32451 114.00000 7.99618 2.56100
 3708 57.97229 106.00000 11.15467 2.56100
 3709 34.98328 111.40000 22.51923 2.17900
 3710 38.48161 106.80000 5.39742 1.80200
 3711 34.98328 111.40000 22.51923 2.17900
 3712 38.48161 106.80000 5.39742 1.80200
 3713 57.97229 109.50000 11.15467 2.56100
 3714 44.97850 111.10000 0.00000 0.00000
 3715 94.95461 111.00000 0.00000 0.00000
 3716 69.96656 107.30000 0.00000 0.00000
 3717 34.58347 110.10000 22.51923 2.17900
 3718 57.97229 115.00000 7.99618 2.56100
 3719 34.58347 110.10000 22.51923 2.17900
 3720 44.97850 111.50000 0.00000 0.00000
 3721 94.95461 109.70000 0.00000 0.00000
 3722 94.95461 109.70000 0.00000 0.00000
 3723 94.95461 109.70000 0.00000 0.00000
 3724 44.97850 111.50000 0.00000 0.00000
 3725 44.97850 111.50000 0.00000 0.00000
 3726 59.97133 109.50000 0.00000 0.00000
 3727 59.97133 109.50000 0.00000 0.00000
 3728 34.48352 110.10000 22.51923 2.17900
 3729 35.48304 109.00000 5.39742 1.80200
 3730 58.32212 112.00000 11.15467 2.56100
 3731 44.97850 111.50000 0.00000 0.00000
 3732 94.95461 109.70000 0.00000 0.00000
 3733 44.97850 109.50000 0.00000 0.00000
 3734 29.98567 117.00000 0.00000 0.00000
 3735 29.98567 121.50000 0.00000 0.00000
 3736 33.98376 150.50000 0.00000 0.00000
 3737 33.98376 150.00000 0.00000 0.00000
 3738 33.98376 150.00000 0.00000 0.00000
 3739 31.98471 126.00000 0.00000 0.00000
 3740 29.98567 121.50000 0.00000 0.00000
 3741 29.98567 121.50000 0.00000 0.00000
 3742 33.98376 159.00000 0.00000 0.00000
 3743 29.98567 119.00000 0.00000 0.00000
 3744 43.97898 118.00000 0.00000 0.00000
 3745 33.98376 122.50000 0.00000 0.00000
 3746 31.98471 126.00000 0.00000 0.00000
 3747 29.98567 117.00000 0.00000 0.00000
 3748 29.98567 98.00000 0.00000 0.00000
 3749 29.98567 117.00000 0.00000 0.00000
 3750 29.98567 117.00000 0.00000 0.00000
 3751 34.98328 93.40000 0.00000 0.00000
 3752 34.98328 93.40000 0.00000 0.00000
 3753 29.98567 90.00000 0.00000 0.00000
 3754 29.98567 117.00000 0.00000 0.00000
 3755 29.98567 117.00000 0.00000 0.00000
 3756 29.98567 119.00000 0.00000 0.00000
 3757 29.98567 117.00000 0.00000 0.00000
 3758 29.98567 117.00000 0.00000 0.00000
 3759 43.97898 118.00000 0.00000 0.00000
 3760 54.97372 104.52000 0.00000 0.00000
 3761 2998.56665 180.00000 0.00000 0.00000
 3762 49.97611 100.60000 0.00000 0.00000
 3763 99.95222 90.00000 0.00000 0.00000
 3764 69.96656 126.74000 0.00000 0.00000
 3765 94.15499 125.12000 0.00000 0.00000
 3766 139.23344 103.90000 0.00000 0.00000
 3767 69.96656 121.50000 0.00000 0.00000
 3768 69.96656 126.75000 0.00000 0.00000
 3769 30.78528 106.51000 0.00000 0.00000
 3770 61.57057 124.07000 0.00000 0.00000
 3771 64.96894 126.74000 0.00000 0.00000
 3772 64.96894 126.75000 0.00000 0.00000
 3773 69.96656 113.00000 0.00000 0.00000
 3774 64.96894 126.74000 0.00000 0.00000
 3775 64.96894 126.75000 0.00000 0.00000
 3776 96.10406 128.05000 0.00000 0.00000
 3777 29.98567 133.00000 0.00000 0.00000
 3778 29.98567 123.00000 0.00000 0.00000
 3779 28.98614 120.00000 24.98806 2.15250
 3780 40.98041 122.00000 0.00000 0.00000
 3781 31.98471 125.00000 24.98806 2.17300
 3782 33.41403 110.10000 22.51923 2.17900
 3783 26.48734 110.10000 22.51923 2.17900
 3784 26.48734 110.10000 22.51923 2.17900
 3785 35.48304 109.00000 5.39742 1.80200
 3786 26.48734 110.10000 22.51923 2.17900
 3787 35.48304 109.00000 5.39742 1.80200
 3788 12.69393 117.44000 0.00000 0.00000
 3789 0.00000 180.00000 0.00000 0.00000
 3790 34.58347 110.10000 22.51923 2.17900
 3791 35.48304 108.40000 13.99331 1.77500
 3792 32.98423 109.50000 29.98567 2.16300
 3793 32.98423 109.50000 29.98567 2.16300
 3794 34.48352 110.10000 22.51923 2.17900
 3795 34.48352 110.10000 22.51923 2.17900
 3796 34.48352 110.10000 22.51923 2.17900
 3797 35.48304 109.00000 5.39742 1.80200
 3798 32.98423 109.50000 29.98567 2.16300
 3799 49.27645 107.50000 0.00000 0.00000
 3800 32.98423 109.50000 29.98567 2.16300
 3801 32.98423 109.50000 29.98567 2.16300
 3802 44.97850 111.50000 0.00000 0.00000
 3803 49.97611 109.50000 0.00000 0.00000
 3804 33.41403 109.50000 0.00000 0.00000
 3805 33.41403 110.10000 22.51923 2.17900
 3806 26.48734 110.10000 22.51923 2.17900
 3807 34.58347 110.10000 22.51923 2.17900
 3808 33.41403 109.50000 0.00000 0.00000
 3809 35.48304 109.00000 5.39742 1.80200
 3810 32.98423 109.50000 29.98567 2.16300
 3811 49.27645 107.50000 0.00000 0.00000
 3812 32.98423 109.50000 29.98567 2.16300
 3813 32.98423 109.50000 29.98567 2.16300
 3814 41.97993 111.50000 0.00000 0.00000
 3815 49.97611 109.50000 0.00000 0.00000
 3816 33.41403 109.50000 0.00000 0.00000
 3817 34.58347 110.10000 22.51923 2.17900
 3818 33.41403 110.10000 22.51923 2.17900
 3819 34.58347 110.10000 22.51923 2.17900
 3820 37.48208 110.10000 22.51923 2.17900
 3821 35.48304 108.40000 5.39742 1.80200
 3822 19.99044 126.40000 24.98806 2.18600
 3823 31.98471 126.40000 24.98806 2.25500
 3824 49.97611 120.00000 0.00000 0.00000
 3825 49.97611 112.00000 0.00000 0.00000
 3826 49.97611 112.00000 0.00000 0.00000
 3827 49.97611 112.00000 0.00000 0.00000
 3828 34.98328 118.00000 0.00000 0.00000
 3829 49.97611 109.50000 0.00000 0.00000
 3830 49.97611 109.50000 0.00000 0.00000
 3831 49.97611 109.50000 0.00000 0.00000
 3832 34.98328 111.00000 0.00000 0.00000
 3833 34.98328 111.00000 0.00000 0.00000
 3834 34.98328 111.00000 0.00000 0.00000
 3835 49.97611 109.50000 0.00000 0.00000
 3836 49.97611 109.50000 0.00000 0.00000
 3837 49.97611 109.50000 0.00000 0.00000
 3838 35.98280 115.00000 0.00000 0.00000
 3839 49.97611 109.50000 0.00000 0.00000
 3840 47.97707 112.00000 0.00000 0.00000
 3841 47.97707 108.00000 0.00000 0.00000
 3842 51.47539 107.50000 0.00000 0.00000
 3843 51.47539 107.50000 0.00000 0.00000
 3844 47.97707 108.00000 0.00000 0.00000
 3845 51.47539 109.50000 0.00000 0.00000
 3846 47.97707 108.00000 0.00000 0.00000
 3847 51.47539 109.50000 0.00000 0.00000
 3848 43.97898 111.00000 49.97611 1.98000
 3849 37.98184 109.50000 49.97611 2.14000
 3850 37.98184 109.50000 49.97611 2.14000
 3851 37.98184 109.50000 49.97611 2.14000
 3852 51.47539 107.50000 0.00000 0.00000
 3853 44.97850 107.50000 34.98328 2.10100
 3854 51.47539 107.50000 0.00000 0.00000
 3855 44.97850 107.50000 34.98328 2.10100
 3856 51.47539 107.50000 0.00000 0.00000
 3857 51.47539 109.15000 0.00000 0.00000
 3858 121.94171 111.54000 0.00000 0.00000
 3859 87.95796 124.39000 0.00000 0.00000
 3860 49.97611 90.00000 0.00000 0.00000
 3861 0.00000 45.00000 0.00000 0.00000
 3862 14.38312 90.00000 0.00000 0.00000
 3863 49.97611 180.00000 0.00000 0.00000
 3864 49.97611 90.00000 0.00000 0.00000
 3865 31.98471 125.00000 24.98806 2.17700
 3866 43.97898 122.00000 0.00000 0.00000
 3867 64.96894 118.30000 0.00000 0.00000
 3868 64.96894 118.30000 0.00000 0.00000
 3869 45.87807 108.89000 0.00000 0.00000
 3870 45.87807 108.89000 0.00000 0.00000
 3871 45.87807 108.89000 0.00000 0.00000
 3872 34.98328 180.00000 0.00000 0.00000
 3873 4.99761 90.00000 0.00000 0.00000
 3874 0.00000 180.00000 0.00000 0.00000
 3875 59.97133 109.50000 0.00000 0.00000
 3876 59.97133 109.50000 0.00000 0.00000
 3877 46.07797 111.30000 0.00000 0.00000
 3878 46.07797 111.30000 0.00000 0.00000
 3879 37.98184 111.00000 0.00000 0.00000
 3880 37.98184 111.00000 0.00000 0.00000
 3881 39.98089 112.30000 0.00000 0.00000
 3882 60.37114 99.92000 0.00000 0.00000
 3883 49.97611 109.50000 0.00000 0.00000
 3884 49.97611 109.50000 0.00000 0.00000
 3885 64.96894 108.00000 0.00000 0.00000
 3886 4.99761 90.00000 0.00000 0.00000
 3887 31.98471 112.20000 0.00000 0.00000
 3888 49.97611 113.00000 0.00000 0.00000
 3889 47.97707 123.50000 0.00000 0.00000
 3890 31.98471 112.20000 0.00000 0.00000
 3891 31.98471 112.20000 0.00000 0.00000
 3892 31.98471 112.20000 0.00000 0.00000
 3893 75.66383 110.10000 0.00000 0.00000
 3894 57.47253 106.00000 0.00000 0.00000
 3895 75.66383 110.10000 0.00000 0.00000
 3896 45.87807 108.89000 0.00000 0.00000
 3897 33.41403 110.10000 22.51923 2.17900
 3898 53.32451 108.50000 7.99618 2.56100
 3899 58.32212 113.50000 11.15467 2.56100
 3900 39.98089 116.00000 0.00000 0.00000
 3901 44.97850 111.50000 0.00000 0.00000
 3902 44.97850 111.50000 0.00000 0.00000
 3903 44.97850 111.50000 0.00000 0.00000
 3904 31.98471 112.20000 0.00000 0.00000
 3905 47.97707 123.50000 0.00000 0.00000
 3906 47.97707 123.50000 0.00000 0.00000
 3907 31.98471 112.20000 0.00000 0.00000
 3908 31.98471 112.20000 0.00000 0.00000
 3909 31.98471 112.20000 0.00000 0.00000
 3910 31.98471 112.20000 0.00000 0.00000
 3911 31.98471 112.20000 0.00000 0.00000
 3912 31.98471 112.20000 0.00000 0.00000
 3913 31.98471 112.20000 0.00000 0.00000
 3914 58.32212 113.50000 11.15467 2.56100
 3915 58.32212 113.50000 11.15467 2.56100
 3916 34.48352 110.10000 22.51923 2.17900
 3917 34.48352 110.10000 22.51923 2.17900
 3918 58.32212 113.50000 11.15467 2.56100
 3919 58.32212 113.50000 11.15467 2.56100
 3920 58.32212 113.50000 11.15467 2.56100
 3921 26.48734 110.10000 22.51923 2.17900
 3922 26.48734 110.10000 22.51923 2.17900
 3923 58.32212 113.50000 11.15467 2.56100
 3924 58.32212 113.50000 11.15467 2.56100
 3925 49.97611 113.00000 0.00000 0.00000
 3926 53.32451 111.00000 7.99618 2.56100
 3927 58.32212 113.50000 11.15467 2.56100
 3928 34.48352 110.10000 22.51923 2.17900
 3929 34.48352 110.10000 22.51923 2.17900
 3930 53.32451 111.00000 7.99618 2.56100
 3931 34.48352 110.10000 22.51923 2.17900
 3932 53.32451 108.50000 7.99618 2.56100
 3933 58.32212 113.50000 11.15467 2.56100
 3934 47.97707 126.00000 0.00000 0.00000
 3935 31.98471 112.20000 0.00000 0.00000
 3936 31.98471 112.20000 0.00000 0.00000
 3937 31.98471 112.20000 0.00000 0.00000
 3938 31.98471 112.20000 0.00000 0.00000
 3939 29.98567 114.00000 0.00000 0.00000
 3940 31.98471 112.20000 0.00000 0.00000
 3941 31.98471 112.20000 0.00000 0.00000
 3942 49.97611 113.00000 0.00000 0.00000
 3943 49.97611 113.00000 0.00000 0.00000
 3944 35.48304 109.00000 5.39742 1.80200
 3945 26.48734 110.10000 22.51923 2.17900
 3946 34.48352 110.10000 22.51923 2.17900
 3947 58.32212 113.60000 11.15467 2.56100
 3948 47.97707 123.50000 0.00000 0.00000
 3949 49.97611 113.00000 0.00000 0.00000
 3950 44.97850 111.50000 0.00000 0.00000
 3951 39.98089 116.00000 0.00000 0.00000
 3952 49.97611 113.00000 0.00000 0.00000
 3953 44.97850 111.50000 0.00000 0.00000
 3954 59.97133 109.50000 0.00000 0.00000
 3955 114.94505 109.70000 0.00000 0.00000
 3956 39.98089 109.60000 29.98567 2.26510
 3957 34.48352 110.10000 22.51923 2.17900
 3958 53.32451 111.00000 7.99618 2.56100
 3959 34.48352 110.10000 22.51923 2.17900
 3960 53.32451 111.00000 7.99618 2.56100
 3961 53.32451 111.00000 7.99618 2.56100
 3962 33.41403 110.10000 22.51923 2.17900
 3963 58.32212 113.50000 11.15467 2.56100
 3964 34.48352 110.10000 22.51923 2.17900
 3965 53.32451 111.00000 7.99618 2.56100
 3966 26.48734 110.10000 22.51923 2.17900
 3967 51.97516 108.00000 0.00000 0.00000
 3968 89.95700 125.90000 159.92355 2.25760
 3969 54.97372 109.00000 19.99044 2.32600
 3970 39.98089 109.60000 29.98567 2.26510
 3971 74.96417 120.00000 0.00000 0.00000
 3972 89.95700 120.00000 19.99044 2.30000
 3973 48.07702 108.00000 0.00000 0.00000
 3974 98.85275 103.00000 0.00000 0.00000
 3975 89.95700 110.00000 5.39742 1.80200
 3976 89.95700 111.00000 19.99044 2.30000
 3977 90.05695 94.00000 0.00000 0.00000
 3978 98.85275 103.00000 0.00000 0.00000
 3979 99.95222 120.00000 0.00000 0.00000
 3980 49.97611 115.00000 29.98567 2.35700
 3981 89.95700 117.00000 19.99044 2.30000
 3982 49.97611 122.00000 29.98567 2.35700
 3983 90.05695 90.00000 0.00000 0.00000
 3984 98.85275 94.00000 0.00000 0.00000
 3985 114.94505 109.70000 0.00000 0.00000
 3986 114.94505 109.70000 0.00000 0.00000
 3987 69.96656 108.40000 0.00000 0.00000
 3988 69.96656 108.40000 0.00000 0.00000
 3989 69.96656 108.40000 0.00000 0.00000
 3990 19.99044 120.00000 34.98328 2.33000
 3991 19.99044 120.00000 34.98328 2.33000
 3992 59.97133 109.50000 0.00000 0.00000
 3993 59.97133 109.50000 0.00000 0.00000
 3994 58.32212 113.60000 11.15467 2.56100
 3995 114.94505 109.70000 0.00000 0.00000
 3996 57.97229 114.50000 0.00000 0.00000
 3997 33.98376 95.00000 0.00000 0.00000
 3998 46.07797 111.30000 0.00000 0.00000
 3999 46.07797 111.30000 0.00000 0.00000
 4000 57.97229 114.50000 0.00000 0.00000
 4001 33.98376 95.00000 0.00000 0.00000
 4002 33.98376 95.00000 0.00000 0.00000
 4003 46.07797 111.30000 0.00000 0.00000
 4004 33.98376 95.00000 0.00000 0.00000
 4005 57.97229 114.50000 0.00000 0.00000
 4006 46.07797 111.30000 0.00000 0.00000
 4007 139.93311 108.00000 0.00000 0.00000
 4008 139.93311 108.00000 0.00000 0.00000
 4009 139.93311 113.70000 0.00000 0.00000
 4010 139.93311 113.70000 0.00000 0.00000
 4011 129.93789 127.00000 0.00000 0.00000
 4012 129.93789 126.00000 0.00000 0.00000
 4013 29.98567 106.30000 0.00000 0.00000
 4014 33.98376 95.00000 0.00000 0.00000
 4015 57.97229 114.50000 0.00000 0.00000
 4016 46.07797 111.30000 0.00000 0.00000
 4017 89.95700 110.00000 0.00000 0.00000
 4018 47.97707 108.00000 0.00000 0.00000
 4019 69.96656 113.50000 0.00000 0.00000
 4020 69.96656 113.50000 0.00000 0.00000
 4021 34.98328 117.00000 0.00000 0.00000
 4022 49.97611 120.00000 0.00000 0.00000
 4023 89.95700 110.00000 0.00000 0.00000
 4024 47.97707 108.00000 0.00000 0.00000
 4025 69.96656 113.50000 0.00000 0.00000
 4026 34.98328 117.00000 0.00000 0.00000
 4027 49.97611 120.00000 0.00000 0.00000
 4028 67.66765 110.00000 0.00000 0.00000
 4029 51.97516 108.00000 0.00000 0.00000
 4030 69.96656 113.50000 0.00000 0.00000
 4031 34.98328 111.00000 0.00000 0.00000
 4032 51.97516 108.00000 0.00000 0.00000
 4033 51.97516 108.00000 0.00000 0.00000
 4034 33.41403 110.10000 22.51923 2.17900
 4035 32.98423 109.50000 29.98567 2.16300
 4036 14.99283 121.00000 49.97611 2.44000
 4037 49.97611 116.50000 49.97611 2.45000
 4038 44.97850 107.00000 0.00000 0.00000
 4039 44.97850 107.00000 0.00000 0.00000
 4040 94.95461 110.70000 0.00000 0.00000
 4041 94.95461 110.70000 0.00000 0.00000
 4042 94.95461 110.70000 0.00000 0.00000
 4043 94.95461 110.70000 0.00000 0.00000
 4044 44.97850 110.00000 0.00000 0.00000
 4045 59.97133 109.50000 0.00000 0.00000
 4046 59.97133 109.50000 0.00000 0.00000
 4047 59.97133 109.50000 0.00000 0.00000
 4048 59.97133 109.50000 0.00000 0.00000
 4049 98.85275 111.60000 0.00000 0.00000
 4050 119.94267 120.00000 0.00000 0.00000
 4051 79.96178 104.30000 0.00000 0.00000
 4052 19.99044 120.00000 34.98328 2.33000
 4053 44.97850 111.50000 0.00000 0.00000
 4054 94.95461 109.70000 0.00000 0.00000
 4055 94.95461 109.70000 0.00000 0.00000
 4056 59.97133 109.50000 0.00000 0.00000
 4057 94.95461 109.70000 0.00000 0.00000
 4058 75.66383 110.10000 0.00000 0.00000
 4059 58.32212 113.50000 11.15467 2.56100
 4060 98.85275 111.60000 0.00000 0.00000
 4061 79.96178 104.30000 0.00000 0.00000
 4062 59.97133 109.50000 0.00000 0.00000
 4063 89.95700 110.00000 0.00000 0.00000
 4064 44.97850 109.00000 0.00000 0.00000
 4065 19.99044 120.00000 34.98328 2.33000
 4066 75.66383 110.10000 0.00000 0.00000
 4067 44.97850 111.50000 0.00000 0.00000
 4068 94.95461 109.70000 0.00000 0.00000
 4069 94.95461 109.70000 0.00000 0.00000
 4070 59.97133 109.50000 0.00000 0.00000
 4071 94.95461 109.70000 0.00000 0.00000
 4072 39.98089 109.60000 29.98567 2.26510
 4073 44.97850 106.00000 0.00000 0.00000
 4074 59.97133 109.50000 0.00000 0.00000
 4075 58.32212 113.60000 11.15467 2.56100
 4076 26.48734 110.10000 22.51923 2.17900
 4077 34.48352 110.10000 22.51923 2.17900
 4078 58.32212 113.50000 11.15467 2.56100
 4079 33.98376 123.00000 0.00000 0.00000
 4080 49.97611 120.00000 0.00000 0.00000
 4081 79.96178 122.50000 0.00000 0.00000
 4082 79.96178 122.50000 0.00000 0.00000
 4083 49.97611 120.00000 0.00000 0.00000
 4084 49.97611 120.00000 0.00000 0.00000
 4085 49.97611 120.00000 0.00000 0.00000
 4086 69.96656 113.50000 0.00000 0.00000
 4087 51.47539 109.50000 0.00000 0.00000
 4088 51.47539 109.50000 0.00000 0.00000
 4089 69.96656 113.50000 0.00000 0.00000
 4090 49.97611 120.00000 0.00000 0.00000
 4091 49.97611 120.00000 0.00000 0.00000
 4092 51.47539 109.50000 0.00000 0.00000
 4093 109.94744 120.00000 0.00000 0.00000
 4094 51.77525 107.50000 0.00000 0.00000
 4095 58.32212 113.50000 11.15467 2.56100
 4096 64.96894 108.00000 0.00000 0.00000
 4097 58.32212 113.60000 11.15467 2.56100
 4098 34.48352 110.10000 22.51923 2.17900
 4099 58.32212 113.50000 11.15467 2.56100
 4100 51.97516 108.00000 0.00000 0.00000
 4101 99.95222 111.77000 0.00000 0.00000
 4102 19.99044 95.00000 0.00000 0.00000
 4103 99.95222 103.80000 0.00000 0.00000
 4104 19.99044 120.65000 0.00000 0.00000
 4105 19.99044 125.98000 0.00000 0.00000
 4106 99.95222 108.11000 0.00000 0.00000
 4107 99.95222 107.85000 0.00000 0.00000
 4108 49.97611 120.00000 0.00000 0.00000
 4109 51.97516 108.00000 0.00000 0.00000
 4110 34.98328 117.00000 0.00000 0.00000
 4111 79.96178 116.50000 0.00000 0.00000
 4112 49.97611 107.00000 0.00000 0.00000
 4113 69.96656 113.50000 0.00000 0.00000
 4114 79.96178 121.00000 0.00000 0.00000
 4115 58.32212 114.00000 0.00000 0.00000
 4116 51.77525 107.50000 0.00000 0.00000
 4117 51.97516 108.00000 0.00000 0.00000
 4118 51.97516 108.00000 0.00000 0.00000
 4119 58.32212 113.00000 0.00000 0.00000
 4120 51.97516 108.00000 0.00000 0.00000
 4121 58.32212 113.50000 11.15467 2.56100
 4122 69.96656 113.50000 0.00000 0.00000
 4123 75.66383 110.10000 0.00000 0.00000
 4124 57.97229 112.50000 0.00000 0.00000
 4125 57.97229 112.50000 0.00000 0.00000
 4126 69.96656 113.50000 0.00000 0.00000
 4127 51.97516 108.00000 0.00000 0.00000
 4128 26.48734 110.10000 22.51923 2.17900
 4129 58.32212 113.50000 11.15467 2.56100
 4130 58.32212 113.00000 0.00000 0.00000
 4131 51.97516 108.00000 0.00000 0.00000
 4132 58.32212 113.50000 11.15467 2.56100
 4133 58.32212 113.50000 11.15467 2.56100
 4134 67.66765 110.00000 0.00000 0.00000
 4135 51.97516 108.00000 0.00000 0.00000
 4136 51.97516 108.00000 0.00000 0.00000
 4137 51.97516 108.00000 0.00000 0.00000
 4138 67.66765 110.00000 0.00000 0.00000
 4139 67.66765 110.00000 0.00000 0.00000
 4140 51.97516 108.00000 0.00000 0.00000
 4141 49.97611 111.00000 0.00000 0.00000
 4142 67.66765 110.00000 0.00000 0.00000
 4143 54.97372 110.50000 0.00000 0.00000
 4144 54.97372 110.50000 0.00000 0.00000
 4145 51.97516 108.00000 0.00000 0.00000
 4146 49.97611 107.00000 0.00000 0.00000
 4147 51.97516 108.00000 0.00000 0.00000
 4148 29.98567 109.50000 19.99044 2.07400
 4149 49.97611 107.00000 0.00000 0.00000
 4150 49.97611 107.00000 0.00000 0.00000
 4151 49.97611 116.50000 49.97611 2.45000
 4152 43.67912 110.00000 0.00000 0.00000
 4153 43.67912 110.00000 0.00000 0.00000
 4154 67.66765 110.00000 0.00000 0.00000
 4155 14.99283 121.00000 49.97611 2.44000
 4156 69.96656 125.00000 19.99044 2.44200
 4157 39.98089 118.00000 49.97611 2.38800
 4158 54.97372 109.00000 19.99044 2.32600
 4159 19.99044 112.50000 0.00000 0.00000
 4160 41.97993 119.50000 0.00000 0.00000
 4161 41.97993 119.50000 0.00000 0.00000
 4162 44.97850 121.00000 0.00000 0.00000
 4163 44.97850 121.00000 0.00000 0.00000
 4164 49.97611 105.00000 0.00000 0.00000
 4165 69.96656 113.50000 0.00000 0.00000
 4166 33.41403 110.10000 0.00000 0.00000
 4167 69.96656 127.10000 0.00000 0.00000
 4168 69.96656 117.90000 0.00000 0.00000
 4169 58.32212 113.00000 0.00000 0.00000
 4170 45.77812 130.00000 0.00000 0.00000
 4171 33.41403 109.50000 0.00000 0.00000
 4172 45.77812 120.00000 0.00000 0.00000
 4173 49.97611 112.20000 0.00000 0.00000
 4174 49.97611 112.50000 0.00000 0.00000
 4175 65.86851 109.50000 0.00000 0.00000
 4176 45.87807 111.00000 0.00000 0.00000
 4177 26.48734 110.10000 22.51923 2.17900
 4178 26.48734 110.10000 22.51923 2.17900
 4179 69.96656 126.25000 0.00000 0.00000
 4180 69.96656 126.25000 0.00000 0.00000
 4181 69.96656 126.00000 0.00000 0.00000
 4182 69.96656 126.00000 0.00000 0.00000
 4183 33.41403 110.10000 0.00000 0.00000
 4184 33.41403 110.10000 0.00000 0.00000
 4185 31.98471 112.20000 0.00000 0.00000
 4186 31.98471 112.20000 0.00000 0.00000
 4187 31.98471 112.20000 0.00000 0.00000
 4188 46.97754 111.50000 0.00000 0.00000
 4189 10.99474 180.00000 0.00000 0.00000
 4190 65.96847 91.00000 0.00000 0.00000
 4191 37.98184 116.00000 0.00000 0.00000
 4192 27.28696 109.70000 0.00000 0.00000
 4193 38.28170 105.20000 0.00000 0.00000
 4194 29.98567 109.50000 19.99044 2.07400
 4195 34.58347 110.10000 0.00000 0.00000
 4196 49.97611 120.00000 0.00000 0.00000
 4197 42.27979 111.50000 0.00000 0.00000
 4198 43.47922 113.50000 0.00000 0.00000
 4199 49.97611 120.00000 0.00000 0.00000
 4200 65.96847 121.70000 0.00000 0.00000
 4201 52.97468 115.20000 0.00000 0.00000
 4202 58.32212 113.00000 0.00000 0.00000
 4203 33.41403 109.50000 0.00000 0.00000
 4204 45.77812 130.00000 0.00000 0.00000
 4205 45.77812 124.00000 0.00000 0.00000
 4206 29.98567 125.50000 19.99044 2.15000
 4207 29.98567 125.50000 19.99044 2.15000
 4208 58.32212 113.00000 0.00000 0.00000
 4209 33.41403 109.50000 0.00000 0.00000
 4210 79.96178 108.81000 0.00000 0.00000
 4211 19.99044 112.50000 0.00000 0.00000
 4212 79.96178 116.50000 0.00000 0.00000
 4213 49.97611 120.00000 0.00000 0.00000
 4214 56.86282 113.81000 7.99618 2.50000
 4215 33.41403 110.10000 22.51923 2.17900
 4216 79.96178 122.50000 0.00000 0.00000
 4217 51.97516 108.00000 0.00000 0.00000
 4218 51.97516 108.00000 0.00000 0.00000
 4219 51.97516 108.00000 0.00000 0.00000
 4220 51.97516 108.00000 0.00000 0.00000
 4221 51.97516 108.00000 0.00000 0.00000
 4222 49.97611 107.00000 0.00000 0.00000
 4223 33.98376 123.00000 0.00000 0.00000
 4224 51.97516 108.00000 0.00000 0.00000
 4225 51.97516 108.00000 0.00000 0.00000
 4226 51.97516 108.00000 0.00000 0.00000
 4227 59.97133 113.80000 0.00000 0.00000
 4228 58.32212 114.00000 0.00000 0.00000
 4229 58.32212 114.00000 0.00000 0.00000
 4230 51.77525 107.50000 0.00000 0.00000
 4231 42.97946 111.00000 0.00000 0.00000
 4232 52.97468 115.20000 0.00000 0.00000
 4233 69.96656 113.50000 0.00000 0.00000
 4234 79.96178 116.50000 0.00000 0.00000
 4235 34.48352 110.10000 22.51923 2.17900
 4236 69.96656 113.50000 0.00000 0.00000
 4237 58.32212 113.50000 11.15467 2.56100
 4238 51.97516 108.00000 0.00000 0.00000
 4239 34.48352 110.10000 22.51923 2.17900
 4240 69.96656 113.50000 0.00000 0.00000
 4241 34.58347 110.10000 22.51923 2.17900
 4242 26.48734 111.80000 22.51923 2.17900
 4243 69.96656 113.50000 0.00000 0.00000
 4244 79.96178 116.50000 0.00000 0.00000
 4245 79.96178 116.50000 0.00000 0.00000
 4246 79.96178 116.50000 0.00000 0.00000
 4247 34.58347 110.10000 22.51923 2.17900
 4248 69.96656 113.50000 0.00000 0.00000
 4249 41.97993 119.50000 0.00000 0.00000
 4250 41.97993 119.50000 0.00000 0.00000
 4251 41.97993 119.50000 0.00000 0.00000
 4252 59.97133 117.00000 0.00000 0.00000
 4253 59.97133 117.00000 0.00000 0.00000
 4254 59.97133 117.00000 0.00000 0.00000
 4255 49.97611 120.00000 0.00000 0.00000
 4256 49.97611 120.00000 0.00000 0.00000
 4257 49.97611 120.00000 0.00000 0.00000
 4258 49.97611 120.00000 0.00000 0.00000
 4259 33.98376 123.00000 0.00000 0.00000
 4260 47.97707 126.00000 0.00000 0.00000
 4261 39.98089 116.00000 0.00000 0.00000
 4262 45.77812 130.00000 0.00000 0.00000
 4263 45.77812 123.00000 0.00000 0.00000
 4264 45.77812 120.00000 0.00000 0.00000
 4265 45.77812 120.00000 0.00000 0.00000
 4266 45.77812 120.00000 0.00000 0.00000
 4267 51.97516 108.00000 0.00000 0.00000
 4268 58.32212 113.50000 11.15467 2.56100
 4269 58.32212 113.50000 11.15467 2.56100
 4270 58.32212 113.50000 11.15467 2.56100
 4271 75.66383 110.10000 0.00000 0.00000
 4272 53.32451 111.00000 7.99618 2.56100
 4273 53.32451 111.00000 7.99618 2.56100
 4274 53.32451 108.50000 7.99618 2.56100
 4275 34.48352 110.10000 22.51923 2.17900
 4276 114.94505 109.70000 0.00000 0.00000
 4277 114.94505 109.70000 0.00000 0.00000
 4278 75.66383 110.10000 0.00000 0.00000
 4279 57.97229 112.50000 0.00000 0.00000
 4280 31.98471 112.20000 0.00000 0.00000
 4281 31.98471 112.20000 0.00000 0.00000
 4282 51.97516 108.00000 0.00000 0.00000
 4283 51.97516 108.00000 0.00000 0.00000
 4284 59.97133 113.80000 0.00000 0.00000
 4285 51.77525 107.50000 0.00000 0.00000
 4286 58.32212 113.50000 11.15467 2.56100
 4287 58.32212 113.50000 11.15467 2.56100
 4288 58.32212 110.50000 11.15467 2.56100
 4289 58.32212 113.50000 11.15467 2.56100
 4290 52.97468 112.00000 7.99618 2.56100
 4291 69.96656 120.00000 0.00000 0.00000
 4292 69.96656 113.50000 0.00000 0.00000
 4293 75.66383 110.10000 0.00000 0.00000
 4294 75.66383 110.10000 0.00000 0.00000
 4295 57.97229 112.50000 0.00000 0.00000
 4296 57.97229 112.50000 0.00000 0.00000
 4297 42.97946 105.50000 0.00000 0.00000
 4298 44.97850 105.00000 0.00000 0.00000
 4299 43.97898 112.00000 29.98567 2.36900
 4300 26.48734 111.80000 22.51923 2.17900
 4301 67.66765 110.00000 0.00000 0.00000
 4302 67.66765 110.00000 0.00000 0.00000
 4303 57.97229 115.00000 7.99618 2.56100
 4304 34.58347 110.10000 22.51923 2.17900
 4305 19.99044 112.50000 0.00000 0.00000
 4306 79.96178 116.50000 0.00000 0.00000
 4307 49.97611 120.00000 0.00000 0.00000
 4308 44.97850 111.50000 0.00000 0.00000
 4309 54.97372 109.50000 0.00000 0.00000
 4310 54.97372 109.50000 0.00000 0.00000
 4311 34.58347 110.10000 22.51923 2.17900
 4312 79.96178 116.50000 0.00000 0.00000
 4313 79.96178 124.00000 0.00000 0.00000
 4314 79.96178 122.50000 0.00000 0.00000
 4315 79.96178 108.81000 0.00000 0.00000
 4316 79.96178 120.54000 0.00000 0.00000
 4317 40.99041 126.52000 0.00000 0.00000
 4318 37.43211 123.70000 0.00000 0.00000
 4319 63.89946 109.23000 0.00000 0.00000
 4320 52.99467 111.63000 7.99618 2.51050
 4321 37.14225 111.65000 0.00000 0.00000
 4322 58.37210 110.31000 0.00000 0.00000
 4323 45.74813 122.04000 29.98567 2.52280
 4324 51.97516 108.00000 0.00000 0.00000
 4325 51.87520 109.73000 0.00000 0.00000
 4326 51.77525 107.50000 0.00000 0.00000
 4327 48.97659 108.59000 0.00000 0.00000
 4328 69.96656 113.50000 0.00000 0.00000
 4329 52.93470 110.32000 0.00000 0.00000
 4330 68.40730 112.53000 0.00000 0.00000
 4331 44.15889 119.68000 0.00000 0.00000
 4332 43.10939 120.49000 0.00000 0.00000
 4333 51.97516 108.00000 0.00000 0.00000
 4334 51.97516 108.00000 0.00000 0.00000
 4335 58.32212 114.00000 0.00000 0.00000
 4336 51.87520 109.73000 0.00000 0.00000
 4337 51.77525 107.50000 0.00000 0.00000
 4338 51.77525 107.50000 0.00000 0.00000
 4339 42.97946 111.00000 0.00000 0.00000
 4340 52.97468 115.20000 0.00000 0.00000
 4341 34.48352 110.10000 22.51923 2.17900
 4342 69.96656 113.50000 0.00000 0.00000
 4343 58.32212 113.50000 11.15467 2.56100
 4344 51.97516 108.00000 0.00000 0.00000
 4345 34.48352 110.10000 22.51923 2.17900
 4346 69.96656 113.50000 0.00000 0.00000
 4347 56.86282 113.81000 7.99618 2.50000
 4348 48.97659 108.59000 0.00000 0.00000
 4349 34.58347 110.10000 22.51923 2.17900
 4350 26.48734 111.80000 22.51923 2.17900
 4351 69.96656 113.50000 0.00000 0.00000
 4352 45.77812 130.00000 0.00000 0.00000
 4353 37.43211 123.70000 0.00000 0.00000
 4354 45.77812 120.00000 0.00000 0.00000
 4355 45.77812 120.00000 0.00000 0.00000
 4356 53.32451 111.00000 7.99618 2.56100
 4357 53.32451 111.00000 7.99618 2.56100
 4358 53.32451 108.50000 7.99618 2.56100
 4359 34.48352 110.10000 22.51923 2.17900
 4360 31.98471 112.20000 0.00000 0.00000
 4361 51.77525 107.50000 0.00000 0.00000
 4362 58.32212 113.50000 11.15467 2.56100
 4363 58.32212 110.50000 11.15467 2.56100
 4364 52.97468 112.00000 7.99618 2.56100
 4365 37.14225 111.65000 0.00000 0.00000
 4366 69.96656 120.00000 0.00000 0.00000
 4367 45.74813 122.04000 29.98567 2.52280
 4368 43.97898 112.00000 29.98567 2.36900
 4369 26.48734 111.80000 22.51923 2.17900
 4370 67.66765 110.00000 0.00000 0.00000
 4371 54.97372 109.50000 0.00000 0.00000
 4372 33.41403 110.10000 22.51923 2.17900
 4373 52.93470 110.32000 0.00000 0.00000
 4374 68.40730 112.53000 0.00000 0.00000
 4375 79.96178 116.50000 0.00000 0.00000
 4376 79.96178 116.50000 0.00000 0.00000
 4377 79.96178 116.50000 0.00000 0.00000
 4378 79.96178 116.50000 0.00000 0.00000
 4379 79.96178 116.50000 0.00000 0.00000
 4380 79.96178 116.50000 0.00000 0.00000
 4381 79.96178 116.50000 0.00000 0.00000
 4382 79.96178 116.50000 0.00000 0.00000
 4383 79.96178 116.50000 0.00000 0.00000
 4384 79.96178 116.50000 0.00000 0.00000
 4385 79.96178 116.50000 0.00000 0.00000
 4386 79.96178 116.50000 0.00000 0.00000
 4387 79.96178 122.50000 0.00000 0.00000
 4388 79.96178 122.50000 0.00000 0.00000
 4389 59.97133 117.00000 0.00000 0.00000
 4390 59.97133 117.00000 0.00000 0.00000
 4391 49.97611 120.00000 0.00000 0.00000
 4392 67.66765 110.00000 0.00000 0.00000
 4393 51.97516 108.00000 0.00000 0.00000
 4394 34.98328 116.75000 0.00000 0.00000
 4395 34.98328 115.75000 0.00000 0.00000
 4396 79.96178 127.50000 0.00000 0.00000
 4397 99.95222 127.00000 0.00000 0.00000
 4398 139.93311 128.40000 0.00000 0.00000
 4399 124.94028 129.70000 0.00000 0.00000
 4400 40.48065 117.00000 0.00000 0.00000
 4401 89.95700 108.40000 0.00000 0.00000
 4402 109.94744 116.40000 0.00000 0.00000
 4403 29.98567 121.30000 0.00000 0.00000
 4404 99.95222 117.80000 0.00000 0.00000
 4405 39.98089 118.00000 0.00000 0.00000
 4406 39.98089 124.20000 0.00000 0.00000
 4407 29.98567 122.00000 0.00000 0.00000
 4408 99.95222 124.20000 0.00000 0.00000
 4409 33.41403 110.10000 22.51923 2.17900
 4410 124.94028 122.30000 0.00000 0.00000
 4411 69.96656 115.20000 0.00000 0.00000
 4412 66.96799 123.60000 0.00000 0.00000
 4413 75.66383 121.60000 0.00000 0.00000
 4414 75.66383 114.80000 0.00000 0.00000
 4415 59.97133 114.70000 0.00000 0.00000
 4416 34.98328 115.50000 0.00000 0.00000
 4417 34.98328 130.20000 0.00000 0.00000
 4418 34.98328 109.50000 0.00000 0.00000
 4419 40.48065 116.10000 0.00000 0.00000
 4420 40.48065 113.70000 0.00000 0.00000
 4421 69.96656 125.10000 0.00000 0.00000
 4422 89.95700 126.80000 0.00000 0.00000
 4423 89.95700 123.70000 0.00000 0.00000
 4424 50.97563 113.00000 0.00000 0.00000
 4425 69.96656 117.30000 0.00000 0.00000
 4426 69.96656 116.00000 0.00000 0.00000
 4427 69.96656 124.90000 0.00000 0.00000
 4428 69.96656 114.50000 0.00000 0.00000
 4429 33.41403 110.10000 22.51923 2.17900
 4430 69.96656 114.50000 0.00000 0.00000
 4431 39.98089 120.00000 34.98328 2.41620
 4432 39.98089 122.50000 34.98328 2.41620
 4433 39.98089 119.00000 34.98328 2.41620
 4434 39.98089 117.00000 34.98328 2.41620
 4435 45.77812 121.00000 0.00000 0.00000
 4436 45.77812 120.00000 0.00000 0.00000
 4437 45.77812 121.00000 0.00000 0.00000
 4438 45.77812 120.00000 0.00000 0.00000
 4439 51.77525 107.50000 0.00000 0.00000
 4440 51.77525 107.50000 0.00000 0.00000
 4441 42.97946 111.00000 0.00000 0.00000
 4442 49.27645 107.50000 0.00000 0.00000
 4443 29.98567 120.00000 21.98949 2.15250
 4444 29.98567 121.00000 21.98949 2.15250
 4445 29.98567 121.50000 21.98949 2.15250
 4446 59.97133 118.75000 0.00000 0.00000
 4447 37.98184 117.00000 0.00000 0.00000
 4448 37.98184 126.30000 0.00000 0.00000
 4449 47.97707 122.40000 0.00000 0.00000
 4450 39.98089 119.60000 0.00000 0.00000
 4451 41.97993 118.00000 0.00000 0.00000
 4452 44.97850 120.50000 0.00000 0.00000
 4453 18.99092 119.00000 0.00000 0.00000
 4454 69.96656 107.80000 0.00000 0.00000
 4455 49.97611 125.50000 0.00000 0.00000
 4456 69.96656 122.20000 0.00000 0.00000
 4457 69.96656 122.20000 0.00000 0.00000
 4458 47.97707 108.00000 0.00000 0.00000
 4459 69.96656 113.50000 0.00000 0.00000
 4460 34.98328 117.00000 0.00000 0.00000
 4461 39.98089 121.50000 0.00000 0.00000
 4462 36.98232 121.20000 0.00000 0.00000
 4463 40.48065 115.40000 0.00000 0.00000
 4464 69.96656 113.00000 0.00000 0.00000
 4465 69.96656 125.00000 0.00000 0.00000
 4466 49.97611 120.00000 0.00000 0.00000
 4467 39.98089 120.00000 34.98328 2.41620
 4468 39.98089 120.00000 34.98328 2.41620
 4469 33.98376 117.00000 0.00000 0.00000
 4470 33.98376 117.00000 0.00000 0.00000
 4471 62.27023 120.00000 0.00000 0.00000
 4472 51.97516 120.00000 89.95700 2.36420
 4473 24.98806 120.00000 0.00000 0.00000
 4474 51.47539 107.50000 0.00000 0.00000
 4475 67.66765 107.50000 0.00000 0.00000
 4476 48.97659 120.00000 0.00000 0.00000
 4477 69.96656 113.50000 0.00000 0.00000
 4478 40.38070 120.00000 0.00000 0.00000
 4479 34.98328 109.00000 0.00000 0.00000
 4480 47.97707 110.00000 0.00000 0.00000
 4481 109.94744 118.30000 34.98328 2.33000
 4482 29.98567 123.60000 39.98089 2.35000
 4483 59.97133 103.20000 0.00000 0.00000
 4484 139.93311 110.60000 0.00000 0.00000
 4485 43.67912 110.00000 0.00000 0.00000
 4486 59.97133 103.20000 0.00000 0.00000
 4487 47.97707 110.00000 0.00000 0.00000
 4488 109.94744 118.30000 34.98328 2.33000
 4489 34.98328 109.00000 0.00000 0.00000
 4490 43.67912 110.00000 0.00000 0.00000
 4491 43.67912 110.00000 0.00000 0.00000
 4492 43.67912 110.00000 0.00000 0.00000
 4493 43.67912 110.00000 0.00000 0.00000
 4494 38.98137 106.00000 0.00000 0.00000
 4495 59.97133 114.70000 0.00000 0.00000
 4496 59.97133 114.70000 0.00000 0.00000
 4497 79.96178 124.00000 0.00000 0.00000
 4498 19.99044 112.50000 0.00000 0.00000
 4499 33.41403 110.10000 0.00000 0.00000
 4500 43.67912 110.00000 0.00000 0.00000
 4501 33.41403 110.10000 0.00000 0.00000
 4502 43.67912 110.00000 0.00000 0.00000
 4503 69.96656 116.00000 0.00000 0.00000
 4504 69.96656 122.00000 0.00000 0.00000
 4505 69.96656 127.80000 0.00000 0.00000
 4506 69.96656 125.90000 0.00000 0.00000
 4507 69.96656 116.00000 0.00000 0.00000
 4508 69.96656 122.00000 0.00000 0.00000
 4509 69.96656 127.80000 0.00000 0.00000
 4510 69.96656 125.90000 0.00000 0.00000
 4511 43.67912 110.00000 0.00000 0.00000
 4512 51.47539 107.50000 0.00000 0.00000
 4513 34.98328 117.00000 0.00000 0.00000
 4514 49.97611 120.00000 0.00000 0.00000
 4515 49.97611 109.50000 0.00000 0.00000
 4516 34.98328 117.00000 0.00000 0.00000
 4517 69.96656 113.50000 0.00000 0.00000
 4518 43.67912 110.00000 0.00000 0.00000
 4519 34.98328 117.00000 0.00000 0.00000
 4520 49.97611 120.00000 0.00000 0.00000
 4521 51.47539 107.50000 0.00000 0.00000
 4522 69.96656 113.50000 0.00000 0.00000
 4523 35.98280 115.00000 0.00000 0.00000
 4524 49.97611 109.50000 0.00000 0.00000
 4525 69.96656 113.50000 0.00000 0.00000
 4526 49.97611 109.50000 0.00000 0.00000
 4527 67.66765 110.00000 0.00000 0.00000
 4528 57.97229 108.67000 0.00000 0.00000
 4529 57.97229 106.67000 0.00000 0.00000
 4530 64.96894 108.00000 0.00000 0.00000
 4531 45.87807 109.00000 0.00000 0.00000
 4532 45.87807 108.89000 0.00000 0.00000
 4533 109.94744 111.00000 0.00000 0.00000
 4534 109.94744 111.00000 0.00000 0.00000
 4535 99.95222 104.00000 0.00000 0.00000
 4536 99.95222 110.00000 0.00000 0.00000
 4537 109.94744 96.00000 0.00000 0.00000
 4538 114.94505 109.70000 0.00000 0.00000
 4539 53.32451 62.50000 0.00000 0.00000
 4540 53.32451 60.50000 0.00000 0.00000
 4541 53.32451 58.50000 0.00000 0.00000
 4542 34.48352 110.10000 22.51923 2.17900
 4543 34.51350 110.10000 22.51923 2.17900
 4544 35.48304 109.00000 5.39742 1.80200
 4545 114.94505 109.70000 0.00000 0.00000
 4546 75.66383 110.00000 0.00000 0.00000
 4547 79.96178 101.90000 0.00000 0.00000
 4548 79.96178 100.00000 0.00000 0.00000
 4549 53.32451 103.70000 7.99618 2.56100
 4550 53.32451 113.70000 7.99618 2.56100
 4551 53.32451 108.70000 7.99618 2.56100
 4552 53.32451 111.00000 7.99618 2.56100
 4553 53.32451 111.00000 7.99618 2.56100
 4554 34.48352 110.10000 22.51923 2.17900
 4555 79.96178 105.50000 7.99618 2.56100
 4556 79.96178 101.00000 0.00000 0.00000
 4557 53.32451 102.00000 7.99618 2.56100
 4558 53.32451 116.00000 7.99618 2.56100
 4559 53.32451 108.00000 7.99618 2.56100
 4560 53.32451 117.00000 7.99618 2.56100
 4561 53.32451 111.00000 7.99618 2.56100
 4562 34.48352 110.10000 22.51923 2.17900
 4563 34.48352 110.10000 22.51923 2.17900
 4564 34.48352 110.10000 22.51923 2.17900
 4565 34.48352 110.10000 22.51923 2.17900
 4566 34.48352 110.10000 22.51923 2.17900
 4567 34.48352 110.10000 22.51923 2.17900
 4568 34.48352 110.10000 22.51923 2.17900
 4569 34.48352 110.10000 22.51923 2.17900
 4570 34.48352 110.10000 22.51923 2.17900
 4571 35.48304 109.00000 5.39742 1.80200
 4572 69.96656 113.70000 0.00000 0.00000
 4573 69.96656 113.70000 0.00000 0.00000
 4574 109.94744 113.70000 0.00000 0.00000
 4575 44.97850 118.40000 0.00000 0.00000
 4576 44.97850 120.00000 0.00000 0.00000
 4577 44.97850 115.90000 0.00000 0.00000
 4578 44.97850 126.10000 0.00000 0.00000
 4579 44.97850 127.60000 0.00000 0.00000
 4580 44.97850 118.40000 0.00000 0.00000
 4581 44.97850 118.40000 0.00000 0.00000
 4582 44.97850 126.50000 0.00000 0.00000
 4583 44.97850 126.30000 0.00000 0.00000
 4584 42.97946 111.00000 0.00000 0.00000
 4585 69.96656 113.70000 0.00000 0.00000
 4586 69.96656 113.70000 0.00000 0.00000
 4587 69.96656 113.70000 0.00000 0.00000
 4588 69.96656 113.70000 0.00000 0.00000
 4589 69.96656 113.70000 0.00000 0.00000
 4590 109.94744 108.00000 0.00000 0.00000
 4591 109.94744 113.70000 0.00000 0.00000
 4592 109.94744 108.00000 0.00000 0.00000
 4593 109.94744 108.00000 0.00000 0.00000
 4594 44.97850 118.40000 0.00000 0.00000
 4595 44.97850 119.60000 0.00000 0.00000
 4596 44.97850 126.50000 0.00000 0.00000
 4597 44.97850 126.30000 0.00000 0.00000
 4598 44.97850 118.40000 0.00000 0.00000
 4599 44.97850 118.40000 0.00000 0.00000
 4600 44.97850 126.50000 0.00000 0.00000
 4601 44.97850 126.30000 0.00000 0.00000
 4602 42.97946 111.00000 0.00000 0.00000
 4603 53.32451 111.00000 7.99618 2.56100
 4604 44.97850 110.00000 0.00000 0.00000
 4605 53.32451 111.00000 7.99618 2.56100
 4606 75.66383 110.10000 0.00000 0.00000
 4607 75.66383 110.10000 0.00000 0.00000
 4608 75.66383 110.10000 0.00000 0.00000
 4609 75.66383 110.10000 0.00000 0.00000
 4610 34.48352 110.10000 22.51923 2.17900
 4611 34.48352 110.10000 22.51923 2.17900
 4612 34.48352 110.10000 22.51923 2.17900
 4613 75.66383 110.10000 0.00000 0.00000
 4614 75.66383 110.10000 0.00000 0.00000
 4615 75.66383 110.10000 0.00000 0.00000
 4616 58.32212 113.60000 11.15467 2.56100
 4617 114.94505 107.50000 0.00000 0.00000
 4618 83.95987 111.00000 0.00000 0.00000
 4619 129.93789 107.00000 0.00000 0.00000
 4620 50.97563 112.00000 0.00000 0.00000
 4621 69.96656 107.30000 0.00000 0.00000
 4622 40.48065 114.40000 0.00000 0.00000
 4623 51.47539 109.50000 0.00000 0.00000
 4624 51.47539 109.50000 0.00000 0.00000
 4625 99.95222 128.00000 0.00000 0.00000
 4626 59.97133 127.40000 0.00000 0.00000
 4627 9.99522 123.90000 0.00000 0.00000
 4628 49.97611 114.00000 0.00000 0.00000
 4629 49.97611 127.40000 0.00000 0.00000
 4630 69.96656 116.30000 0.00000 0.00000
 4631 69.96656 116.30000 0.00000 0.00000
 4632 69.96656 116.30000 0.00000 0.00000
 4633 69.96656 116.30000 0.00000 0.00000
 4634 69.96656 113.70000 0.00000 0.00000
 4635 69.96656 113.50000 0.00000 0.00000
 4636 129.93789 121.60000 0.00000 0.00000
 4637 33.41403 110.10000 22.51923 2.17900
 4638 51.97516 108.00000 0.00000 0.00000
 4639 51.77525 107.50000 0.00000 0.00000
 4640 51.97516 108.00000 0.00000 0.00000
 4641 51.97516 108.00000 0.00000 0.00000
 4642 58.32212 113.00000 0.00000 0.00000
 4643 58.32212 113.50000 11.15467 2.56100
 4644 54.97372 110.50000 0.00000 0.00000
 4645 49.97611 120.00000 0.00000 0.00000
 4646 51.97516 108.00000 0.00000 0.00000
 4647 51.97516 108.00000 0.00000 0.00000
 4648 51.97516 108.00000 0.00000 0.00000
 4649 53.32451 111.00000 7.99618 2.56100
 4650 58.32212 113.50000 11.15467 2.56100
 4651 58.32212 113.50000 11.15467 2.56100
 4652 51.97516 108.00000 0.00000 0.00000
 4653 51.97516 108.00000 0.00000 0.00000
 4654 51.97516 108.00000 0.00000 0.00000
 4655 53.32451 108.50000 7.99618 2.56100
 4656 53.32451 114.00000 7.99618 2.56100
 4657 53.32451 114.00000 7.99618 2.56100
 4658 58.32212 113.50000 11.15467 2.56100
 4659 53.32451 108.50000 7.99618 2.56100
 4660 58.32212 114.00000 0.00000 0.00000
 4661 34.98328 117.00000 0.00000 0.00000
 4662 57.47253 106.00000 0.00000 0.00000
 4663 32.98423 109.50000 29.98567 2.16300
 4664 32.98423 109.50000 29.98567 2.16300
 4665 34.48352 110.10000 22.51923 2.17900
 4666 34.48352 110.10000 22.51923 2.17900
 4667 34.48352 110.10000 22.51923 2.17900
 4668 35.48304 109.00000 5.39742 1.80200
 4669 33.41403 110.10000 22.51923 2.17900
 4670 33.41403 110.10000 22.51923 2.17900
 4671 34.48352 110.10000 22.51923 2.17900
 4672 26.48734 110.10000 22.51923 2.17900
 4673 49.97611 109.50000 0.00000 0.00000
 4674 49.97611 109.50000 0.00000 0.00000
 4675 49.97611 109.50000 0.00000 0.00000
 4676 34.98328 111.00000 0.00000 0.00000
 4677 34.98328 111.00000 0.00000 0.00000
 4678 34.98328 111.00000 0.00000 0.00000
 4679 29.98567 109.50000 19.99044 2.07400
 4680 19.99044 112.50000 0.00000 0.00000
 4681 79.96178 116.50000 0.00000 0.00000
 4682 49.97611 107.00000 0.00000 0.00000
 4683 49.97611 107.00000 0.00000 0.00000
 4684 49.97611 107.00000 0.00000 0.00000
 4685 69.96656 113.50000 0.00000 0.00000
 4686 69.96656 113.50000 0.00000 0.00000
 4687 69.96656 113.50000 0.00000 0.00000
 4688 47.97707 108.00000 0.00000 0.00000
 4689 49.97611 116.50000 49.97611 2.45000
 4690 43.67912 110.00000 0.00000 0.00000
 4691 43.67912 110.00000 0.00000 0.00000
 4692 67.66765 110.00000 0.00000 0.00000
 4693 67.66765 110.00000 0.00000 0.00000
 4694 67.66765 110.00000 0.00000 0.00000
 4695 51.47539 107.50000 0.00000 0.00000
 4696 79.96178 121.00000 0.00000 0.00000
 4697 14.99283 121.00000 49.97611 2.44000
 4698 69.96656 125.00000 19.99044 2.44200
 4699 39.98089 118.00000 49.97611 2.38800
 4700 75.66383 110.10000 0.00000 0.00000
 4701 75.66383 110.10000 0.00000 0.00000
 4702 54.97372 109.00000 19.99044 2.32600
 4703 57.97229 112.50000 0.00000 0.00000
 4704 57.97229 112.50000 0.00000 0.00000
 4705 69.96656 113.50000 0.00000 0.00000
 4706 34.98328 111.00000 0.00000 0.00000
 4707 51.97516 108.00000 0.00000 0.00000
 4708 26.48734 110.10000 22.51923 2.17900
 4709 58.32212 113.50000 11.15467 2.56100
 4710 58.32212 113.00000 0.00000 0.00000
 4711 59.97133 117.00000 0.00000 0.00000
 4712 19.99044 112.50000 0.00000 0.00000
 4713 47.97707 112.00000 0.00000 0.00000
 4714 69.96656 110.80000 0.00000 0.00000
 4715 49.97611 108.20000 0.00000 0.00000
 4716 49.97611 108.20000 0.00000 0.00000
 4717 49.97611 108.20000 0.00000 0.00000
 4718 79.96178 116.50000 0.00000 0.00000
 4719 79.96178 112.50000 0.00000 0.00000
 4720 49.97611 106.00000 0.00000 0.00000
 4721 49.97611 106.00000 0.00000 0.00000
 4722 49.97611 106.00000 0.00000 0.00000
 4723 69.96656 108.50000 0.00000 0.00000
 4724 51.47539 107.50000 0.00000 0.00000
 4725 34.98328 118.00000 0.00000 0.00000
 4726 49.97611 112.00000 0.00000 0.00000
 4727 49.97611 112.00000 0.00000 0.00000
 4728 49.97611 112.00000 0.00000 0.00000
 4729 32.98423 109.50000 3.99809 2.05600
 4730 51.97516 112.30000 0.00000 0.00000
 4731 51.97516 112.30000 0.00000 0.00000
 4732 49.97611 112.30000 0.00000 0.00000
 4733 69.96656 108.50000 0.00000 0.00000
 4734 33.41403 110.10000 22.51923 2.17900
 4735 79.96178 118.00000 0.00000 0.00000
 4736 79.96178 118.00000 0.00000 0.00000
 4737 99.95222 114.20000 0.00000 0.00000
 4738 99.95222 111.00000 0.00000 0.00000
 4739 69.96656 125.00000 19.99044 2.44200
 4740 39.98089 118.00000 49.97611 2.38800
 4741 54.97372 109.00000 19.99044 2.32600
 4742 47.97707 123.50000 0.00000 0.00000
 4743 44.97850 111.50000 0.00000 0.00000
 4744 41.97993 111.50000 0.00000 0.00000
 4745 41.97993 111.50000 0.00000 0.00000
 4746 41.97993 119.00000 0.00000 0.00000
 4747 41.97993 119.00000 0.00000 0.00000
 4748 41.97993 117.50000 0.00000 0.00000
 4749 21.98949 117.50000 0.00000 0.00000
 4750 41.97993 118.00000 0.00000 0.00000
 4751 41.97993 118.00000 0.00000 0.00000
 4752 44.97850 120.50000 0.00000 0.00000
 4753 44.97850 120.50000 0.00000 0.00000
 4754 41.97993 118.00000 0.00000 0.00000
 4755 41.97993 118.00000 0.00000 0.00000
 4756 47.97707 123.50000 0.00000 0.00000
 4757 47.97707 123.50000 0.00000 0.00000
 4758 18.99092 119.00000 0.00000 0.00000
 4759 47.97707 123.50000 0.00000 0.00000
 4760 47.97707 123.50000 0.00000 0.00000
 4761 31.98471 112.20000 0.00000 0.00000
 4762 31.98471 112.20000 0.00000 0.00000
 4763 31.98471 112.20000 0.00000 0.00000
 4764 47.97707 123.50000 0.00000 0.00000
 4765 47.97707 123.50000 0.00000 0.00000
 4766 47.97707 123.50000 0.00000 0.00000
 4767 47.97707 123.50000 0.00000 0.00000
 4768 47.97707 123.50000 0.00000 0.00000
 4769 47.97707 123.50000 0.00000 0.00000
 4770 47.97707 113.00000 0.00000 0.00000
 4771 46.97754 113.00000 0.00000 0.00000
 4772 58.32212 113.50000 11.15467 2.56100
 4773 58.32212 113.50000 11.15467 2.56100
 4774 58.32212 113.50000 11.15467 2.56100
 4775 26.48734 110.10000 22.51923 2.17900
 4776 33.41403 110.10000 22.51923 2.17900
 4777 47.97707 123.50000 0.00000 0.00000
 4778 49.97611 120.00000 0.00000 0.00000
 4779 33.98376 117.00000 0.00000 0.00000
 4780 39.98089 120.00000 34.98328 2.41620
 4781 46.97754 125.20000 0.00000 0.00000
 4782 47.97707 123.50000 0.00000 0.00000
 4783 51.97516 119.50000 0.00000 0.00000
 4784 79.96178 122.50000 0.00000 0.00000
 4785 79.96178 116.50000 0.00000 0.00000
 4786 39.98089 116.00000 0.00000 0.00000
 4787 75.66383 110.10000 0.00000 0.00000
 4788 27.98662 126.00000 0.00000 0.00000
 4789 59.97133 120.00000 0.00000 0.00000
 4790 59.97133 120.00000 0.00000 0.00000
 4791 31.98471 122.00000 0.00000 0.00000
 4792 74.96417 124.00000 0.00000 0.00000
 4793 14.99283 115.00000 0.00000 0.00000
 4794 51.97516 119.50000 0.00000 0.00000
 4795 39.98089 119.00000 34.98328 2.52670
 4796 39.98089 118.00000 49.97611 2.38800
 4797 47.97707 123.50000 0.00000 0.00000
 4798 66.96799 111.00000 0.00000 0.00000
 4799 51.97516 123.00000 0.00000 0.00000
 4800 37.98184 119.50000 0.00000 0.00000
 4801 41.97993 113.50000 0.00000 0.00000
 4802 66.96799 123.60000 0.00000 0.00000
 4803 37.98184 117.40000 0.00000 0.00000
 4804 37.98184 118.80000 0.00000 0.00000
 4805 39.98089 125.60000 0.00000 0.00000
 4806 37.98184 114.00000 0.00000 0.00000
 4807 41.97993 120.40000 0.00000 0.00000
 4808 41.97993 110.10000 0.00000 0.00000
 4809 39.98089 125.60000 0.00000 0.00000
 4810 41.97993 120.40000 0.00000 0.00000
 4811 67.66765 110.00000 0.00000 0.00000
 4812 41.97993 113.50000 0.00000 0.00000
 4813 66.96799 111.00000 0.00000 0.00000
 4814 39.98089 123.00000 0.00000 0.00000
 4815 66.96799 123.60000 0.00000 0.00000
 4816 37.98184 117.40000 0.00000 0.00000
 4817 67.66765 110.00000 0.00000 0.00000
 4818 41.97993 110.10000 0.00000 0.00000
 4819 114.94505 109.70000 0.00000 0.00000
 4820 59.97133 109.50000 0.00000 0.00000
 4821 64.96894 107.00000 0.00000 0.00000
 4822 89.95700 112.00000 0.00000 0.00000
 4823 69.96656 120.50000 0.00000 0.00000
 4824 69.96656 115.40000 0.00000 0.00000
 4825 33.41403 110.10000 22.51923 2.17900
 4826 69.96656 120.50000 0.00000 0.00000
 4827 69.96656 115.40000 0.00000 0.00000
 4828 33.41403 110.10000 22.51923 2.17900
 4829 69.96656 127.80000 0.00000 0.00000
 4830 69.96656 125.90000 0.00000 0.00000
 4831 69.96656 127.80000 0.00000 0.00000
 4832 69.96656 125.90000 0.00000 0.00000
 4833 75.96369 107.00000 0.00000 0.00000
 4834 59.97133 106.50000 0.00000 0.00000
 4835 45.87807 108.50000 0.00000 0.00000
 4836 64.96894 107.00000 0.00000 0.00000
 4837 75.96369 107.00000 0.00000 0.00000
 4838 59.97133 106.50000 0.00000 0.00000
 4839 45.87807 108.50000 0.00000 0.00000
 4840 54.97372 107.00000 0.00000 0.00000
 4841 75.66383 110.10000 0.00000 0.00000
 4842 19.99044 120.00000 34.98328 2.33000
 4843 44.97850 119.60000 0.00000 0.00000
 4844 44.97850 118.40000 0.00000 0.00000
 4845 109.94744 112.00000 0.00000 0.00000
 4846 42.97946 111.00000 0.00000 0.00000
 4847 109.94744 111.00000 0.00000 0.00000
 4848 44.97850 126.30000 0.00000 0.00000
 4849 44.97850 126.90000 0.00000 0.00000
 4850 109.94744 112.00000 0.00000 0.00000
 4851 109.94744 111.00000 0.00000 0.00000
 4852 42.97946 111.00000 0.00000 0.00000
 4853 35.98280 121.00000 0.00000 0.00000
 4854 42.97946 122.30000 0.00000 0.00000
 4855 53.97420 109.30000 0.00000 0.00000
 4856 73.96464 107.50000 0.00000 0.00000
 4857 47.97707 111.00000 0.00000 0.00000
 4858 44.97850 110.80000 0.00000 0.00000
 4859 84.95939 108.00000 0.00000 0.00000
 4860 37.98184 116.00000 0.00000 0.00000
 4861 39.98089 120.00000 0.00000 0.00000
 4862 47.97707 112.00000 0.00000 0.00000
 4863 44.97850 119.60000 0.00000 0.00000
 4864 99.95222 112.00000 0.00000 0.00000
 4865 71.96560 112.90000 0.00000 0.00000
 4866 53.97420 106.00000 0.00000 0.00000
 4867 89.95700 105.50000 0.00000 0.00000
 4868 74.96417 102.00000 0.00000 0.00000
 4869 84.95939 108.00000 0.00000 0.00000
 4870 54.97372 109.30000 0.00000 0.00000
 4871 51.97516 107.70000 0.00000 0.00000
 4872 59.97133 118.10000 0.00000 0.00000
 4873 52.97468 120.00000 0.00000 0.00000
 4874 49.97611 115.40000 0.00000 0.00000
 4875 44.97850 126.90000 0.00000 0.00000
 4876 53.97420 109.30000 0.00000 0.00000
 4877 73.96464 107.50000 0.00000 0.00000
 4878 109.94744 108.00000 0.00000 0.00000
 4879 109.94744 113.70000 0.00000 0.00000
 4880 109.94744 108.00000 0.00000 0.00000
 4881 109.94744 113.70000 0.00000 0.00000
 4882 129.93789 109.47000 34.98328 2.45000
 4883 79.96178 99.00000 0.00000 0.00000
 4884 48.97659 109.00000 0.00000 0.00000
 4885 49.97611 105.50000 0.00000 0.00000
 4886 79.96178 112.00000 0.00000 0.00000
 4887 79.96178 112.00000 0.00000 0.00000
 4888 68.96703 100.00000 0.00000 0.00000
 4889 68.96703 100.00000 0.00000 0.00000
 4890 59.97133 101.50000 0.00000 0.00000
 4891 58.32212 113.50000 11.15467 2.56100
 4892 75.66383 110.10000 0.00000 0.00000
 4893 49.97611 120.00000 0.00000 0.00000
 4894 34.98328 117.00000 0.00000 0.00000
 4895 51.47539 109.50000 0.00000 0.00000
 4896 69.96656 113.50000 0.00000 0.00000
 4897 67.66765 115.00000 0.00000 0.00000
 4898 33.41403 110.10000 22.51923 2.17900
 4899 49.97611 105.50000 0.00000 0.00000
 4900 44.97850 111.50000 0.00000 0.00000
 4901 26.48734 110.10000 22.51923 2.17900
 4902 58.32212 113.60000 11.15467 2.56100
 4903 58.32212 113.60000 11.15467 2.56100
 4904 75.66383 110.10000 0.00000 0.00000
 4905 57.97229 114.50000 0.00000 0.00000
 4906 46.07797 111.30000 0.00000 0.00000
 4907 38.78146 95.00000 0.00000 0.00000
 4908 43.67912 110.00000 0.00000 0.00000
 4909 32.98423 109.50000 29.98567 2.16300
 4910 39.98089 118.00000 49.97611 2.38800
 4911 58.32212 113.50000 11.15467 2.56100
 4912 51.77525 107.50000 0.00000 0.00000
 4913 45.77812 120.00000 0.00000 0.00000
 4914 19.99044 120.00000 34.98328 2.33000
 4915 59.97133 109.50000 0.00000 0.00000
 4916 44.97850 109.00000 0.00000 0.00000
 4917 33.98376 95.00000 0.00000 0.00000
 4918 57.97229 114.50000 0.00000 0.00000
 4919 74.96417 122.20000 0.00000 0.00000
 4920 79.96178 122.50000 0.00000 0.00000
 4921 33.98376 95.00000 0.00000 0.00000
 4922 46.07797 111.30000 0.00000 0.00000
 4923 57.97229 112.50000 0.00000 0.00000
 4924 57.97229 114.50000 0.00000 0.00000
 4925 26.48734 110.10000 22.51923 2.17900
 4926 34.48352 110.10000 22.51923 2.17900
 4927 75.66383 110.10000 0.00000 0.00000
 4928 58.32212 113.50000 11.15467 2.56100
 4929 51.97516 108.00000 0.00000 0.00000
 4930 51.97516 108.00000 0.00000 0.00000
 4931 47.97707 123.50000 0.00000 0.00000
 4932 47.97707 123.50000 0.00000 0.00000
 4933 51.97516 108.00000 0.00000 0.00000
 4934 51.97516 108.00000 0.00000 0.00000
 4935 51.97516 108.00000 0.00000 0.00000
 4936 58.32212 113.50000 11.15467 2.56100
 4937 47.97707 123.50000 0.00000 0.00000
 4938 31.98471 112.20000 0.00000 0.00000
 4939 31.98471 112.20000 0.00000 0.00000
 4940 51.97516 108.00000 0.00000 0.00000
 4941 75.66383 110.10000 0.00000 0.00000
 4942 75.66383 110.10000 0.00000 0.00000
 4943 75.66383 110.10000 0.00000 0.00000
 4944 75.66383 110.10000 0.00000 0.00000
 4945 79.96178 121.00000 0.00000 0.00000
 4946 79.96178 121.00000 0.00000 0.00000
 4947 75.66383 110.10000 0.00000 0.00000
 4948 75.66383 110.10000 0.00000 0.00000
 4949 39.98089 109.60000 29.98567 2.26510
 4950 39.98089 116.00000 0.00000 0.00000
 4951 39.98089 116.00000 0.00000 0.00000
 4952 32.98423 109.50000 29.98567 2.16300
 4953 32.98423 109.50000 29.98567 2.16300
 4954 34.48352 110.10000 22.51923 2.17900
 4955 34.48352 110.10000 22.51923 2.17900
 4956 34.48352 110.10000 22.51923 2.17900
 4957 33.41403 110.10000 22.51923 2.17900
 4958 51.97516 119.50000 0.00000 0.00000
 4959 39.98089 116.00000 0.00000 0.00000
 4960 44.97850 111.50000 0.00000 0.00000
 4961 32.98423 109.50000 29.98567 2.16300
 4962 32.98423 109.50000 29.98567 2.16300
 4963 79.96178 122.50000 0.00000 0.00000
 4964 79.96178 122.50000 0.00000 0.00000
 4965 57.47253 106.00000 0.00000 0.00000
 4966 45.87807 108.89000 0.00000 0.00000
 4967 45.87807 108.89000 0.00000 0.00000
 4968 69.96656 113.50000 0.00000 0.00000
 4969 79.96178 116.50000 0.00000 0.00000
 4970 69.96656 113.50000 0.00000 0.00000
 4971 69.96656 113.50000 0.00000 0.00000
 4972 69.96656 113.50000 0.00000 0.00000
 4973 79.96178 116.50000 0.00000 0.00000
 4974 34.98328 117.00000 0.00000 0.00000
 4975 33.98376 123.00000 0.00000 0.00000
 4976 34.98328 117.00000 0.00000 0.00000
 4977 49.97611 120.00000 0.00000 0.00000
 4978 49.97611 120.00000 0.00000 0.00000
 4979 51.47539 109.50000 0.00000 0.00000
 4980 47.97707 108.00000 0.00000 0.00000
 4981 57.47253 106.00000 0.00000 0.00000
 4982 45.87807 108.89000 0.00000 0.00000
 4983 26.48734 110.10000 22.51923 2.17900
 4984 34.48352 110.10000 22.51923 2.17900
 4985 69.96656 113.50000 0.00000 0.00000
 4986 58.32212 113.50000 11.15467 2.56100
 4987 35.48304 109.00000 5.39742 1.80200
 4988 75.66383 110.10000 0.00000 0.00000
 4989 47.97707 123.50000 0.00000 0.00000
 4990 47.97707 123.50000 0.00000 0.00000
 4991 41.97993 111.50000 0.00000 0.00000
 4992 79.96178 116.50000 0.00000 0.00000
 4993 79.96178 121.00000 0.00000 0.00000
 4994 51.97516 108.00000 0.00000 0.00000
 4995 49.97611 109.50000 0.00000 0.00000
 4996 75.66383 110.10000 0.00000 0.00000
 4997 75.66383 110.10000 0.00000 0.00000
 4998 84.95939 113.00000 79.96178 2.46000
 4999 84.95939 118.50000 19.99044 2.43000
 5000 84.95939 128.50000 19.99044 2.17000
 5001 41.97993 119.00000 0.00000 0.00000
 5002 41.97993 119.00000 0.00000 0.00000
 5003 29.98567 116.00000 0.00000 0.00000
 5004 41.97993 119.00000 0.00000 0.00000
 5005 4.99761 107.80000 0.00000 0.00000
 5006 124.94028 124.20000 0.00000 0.00000
 5007 39.98089 110.20000 0.00000 0.00000
 5008 9.99522 131.80000 0.00000 0.00000
 5009 49.97611 118.00000 0.00000 0.00000
 5010 39.98089 118.00000 0.00000 0.00000
 5011 53.47444 108.50000 0.00000 0.00000
 5012 53.47444 108.50000 0.00000 0.00000
 5013 43.47922 128.00000 0.00000 0.00000
 5014 29.98567 122.00000 0.00000 0.00000
 5015 29.98567 119.00000 0.00000 0.00000
 5016 41.97993 119.00000 0.00000 0.00000
 5017 41.97993 116.00000 0.00000 0.00000
 5018 79.96178 121.00000 0.00000 0.00000
 5019 79.96178 120.50000 0.00000 0.00000
 5020 119.94267 122.00000 0.00000 0.00000
 5021 59.97133 122.00000 0.00000 0.00000
 5022 29.98567 116.00000 0.00000 0.00000
 5023 79.96178 117.50000 0.00000 0.00000
 5024 41.97993 119.00000 0.00000 0.00000
 5025 124.94028 108.00000 0.00000 0.00000
 5026 54.97372 110.10000 0.00000 0.00000
 5027 34.98328 120.00000 0.00000 0.00000
 5028 29.98567 120.00000 0.00000 0.00000
 5029 19.99044 114.00000 0.00000 0.00000
 5030 69.96656 121.70000 0.00000 0.00000
 5031 69.96656 121.70000 0.00000 0.00000
 5032 31.98471 117.40000 0.00000 0.00000
 5033 38.98137 123.00000 0.00000 0.00000
 5034 114.94505 109.70000 0.00000 0.00000
 5035 39.98089 120.00000 99.45246 2.24127
 5036 77.31304 111.00000 7.99618 2.56100
 5037 22.98901 117.10000 22.51923 2.17900
 5038 22.98901 117.00000 5.39742 1.80200
 5039 51.97516 108.00000 0.00000 0.00000
 5040 32.98423 109.50000 29.98567 2.16300
 5041 58.32212 113.50000 11.15467 2.56100
 5042 34.48352 110.10000 22.51923 2.17900
 5043 51.97516 108.00000 0.00000 0.00000
 5044 69.96656 121.30000 0.00000 0.00000
 5045 43.50920 114.54000 18.60111 2.68260
 5046 68.34733 122.40000 19.68059 2.70940
 5047 79.96178 116.50000 0.00000 0.00000

 Dihedral Coeffs #fourier

 1 3 0.87958 1 180 0.00000 2 180 1.89909 3 0
 2 1 0.18991 3 0
 3 1 0.18991 3 0
 4 1 0.18991 3 0
 5 3 0.83960 1 0 0.97953 2 180 1.45930 3 0
 6 3 0.52975 1 180 0.41980 2 180 0.29986 3 180
 7 2 2.74869 2 180 0.29986 4 0
 8 2 2.74869 2 180 0.29986 4 0
 9 2 2.74869 2 180 0.29986 4 0
 10 2 1.59924 1 0 2.49881 2 180
 11 2 1.59924 1 0 2.49881 2 180
 12 2 1.59924 1 0 2.49881 2 180
 13 1 2.04902 2 180
 14 2 2.74869 2 180 0.29986 4 0
 15 2 2.74869 2 180 0.29986 4 0
 16 1 2.59876 2 180
 17 1 2.59876 2 180
 18 1 2.59876 2 180
 19 2 2.74869 2 180 0.29986 4 0
 20 1 2.49881 2 180
 21 2 1.59924 1 0 2.49881 2 180
 22 2 1.59924 1 0 2.49881 2 180
 23 2 1.59924 1 0 2.49881 2 180
 24 2 1.59924 1 0 2.49881 2 180
 25 2 1.57335 1 0 0.05198 2 180
 26 2 1.15805 1 180 1.50318 2 0
 27 1 1.79914 1 0
 28 1 0.19990 3 0
 29 1 0.19990 3 0
 30 3 0.37982 1 180 0.12994 2 180 0.28986 3 180
 31 3 0.17991 1 0 0.05997 2 0 0.24988 3 0
 32 3 0.39981 1 180 0.29986 2 0 0.09995 3 0
 33 1 0.00000 1 0
 34 1 0.00000 1 0
 35 1 0.00000 1 0
 36 2 1.59924 1 0 2.49881 2 180
 37 2 1.59924 1 0 2.49881 2 180
 38 2 1.59924 1 0 2.49881 2 180
 39 1 0.00000 1 0
 40 2 1.56545 1 0 3.09432 2 180
 41 1 0.18991 3 0
 42 3 0.62970 1 180 0.01000 2 0 0.14993 3 0
 43 3 0.13993 1 180 0.53974 2 0 0.68967 3 0
 44 1 0.15992 3 0
 45 1 0.19990 3 0
 46 3 0.04998 1 0 0.09995 2 180 0.01000 3 180
 47 3 0.47977 1 180 0.41980 2 180 0.64969 3 0
 48 3 0.61970 1 180 0.65968 2 180 0.71966 3 180
 49 3 0.41980 1 180 0.14993 2 180 0.94955 3 180
 50 3 0.19990 1 0 0.64969 2 0 0.21989 3 0
 51 2 0.23989 1 180 0.36982 3 0
 52 1 0.14993 3 180
 53 2 0.23989 1 180 0.36982 3 0
 54 3 1.48929 1 0 0.08996 2 180 0.78962 3 180
 55 3 1.08948 1 0 0.08996 2 0 0.66968 3 180
 56 3 0.01999 1 0 0.55973 2 0 0.48977 3 0
 57 3 0.59971 1 180 0.64969 2 0 0.04998 3 0
 58 1 0.04998 6 180
 59 1 0.04998 6 180
 60 3 0.47977 1 180 0.41980 2 180 0.64969 3 0
 61 3 1.08948 1 0 0.08996 2 0 0.66968 3 180
 62 1 0.11994 3 0
 63 1 0.49976 1 180
 64 3 0.47977 1 180 0.41980 2 180 0.64969 3 0
 65 1 0.09995 3 0
 66 2 0.94955 2 0 0.49976 3 0
 67 1 0.04998 6 180
 68 1 0.04998 6 180
 69 1 0.28386 3 0
 70 3 0.42979 1 180 0.04998 2 0 0.55973 3 180
 71 1 0.28386 3 0
 72 3 0.42979 1 180 0.04998 2 0 0.55973 3 180
 73 1 0.00000 3 0
 74 3 0.52975 1 180 0.41980 2 180 0.29986 3 180
 75 1 5.19752 2 180
 76 1 4.29795 2 180
 77 1 0.99952 2 180
 78 1 0.99952 2 180
 79 1 2.54059 2 180
 80 1 3.09852 2 180
 81 1 3.09852 2 180
 82 1 2.39885 2 180
 83 1 2.39885 2 180
 84 1 3.09852 2 180
 85 1 4.49785 2 180
 86 1 0.04998 6 180
 87 1 0.19990 3 0
 88 1 0.19491 3 0
 89 1 0.13993 3 0
 90 1 0.19990 3 0
 91 1 0.19491 3 0
 92 1 0.15992 3 0
 93 3 1.12946 1 0 0.13993 2 0 0.23989 3 0
 94 1 0.00000 1 0
 95 1 1.39933 1 0
 96 1 0.04998 6 180
 97 1 0.00000 3 180
 98 4 1.04950 1 180 0.39981 2 180 0.59971 3 180 0.09995 4 180
 99 3 0.19990 1 0 0.26987 2 0 0.00000 3 0
 100 2 0.08996 2 180 0.56973 3 0
 101 1 0.22989 2 180
 102 1 0.49976 4 180
 103 1 0.49976 4 180
 104 1 0.19491 3 0
 105 1 0.13993 3 0
 106 1 0.19491 3 0
 107 1 0.19990 3 0
 108 1 0.19990 3 0
 109 1 0.19990 3 0
 110 1 0.19491 3 0
 111 1 0.19990 3 180
 112 1 0.19990 3 0
 113 2 0.39981 1 0 0.48977 3 0
 114 1 0.00000 3 0
 115 3 1.32936 1 0 0.17991 2 0 0.45978 3 0
 116 2 0.23989 1 180 0.36982 3 0
 117 2 0.49976 1 180 1.29938 3 180
 118 1 0.00000 3 0
 119 2 0.49976 2 0 0.29986 3 0
 120 1 0.11994 3 0
 121 1 0.00000 1 0
 122 1 0.04998 6 180
 123 1 0.00000 6 180
 124 1 0.52975 2 180
 125 1 0.52975 2 180
 126 1 0.04998 6 180
 127 1 0.00000 3 180
 128 4 1.04950 1 180 0.39981 2 180 0.59971 3 180 0.09995 4 180
 129 4 0.39981 1 0 0.16992 2 180 0.12994 3 180 0.09995 6 180
 130 4 0.74964 1 180 0.17991 2 180 0.06497 3 180 0.02999 6 0
 131 3 0.19990 1 0 0.26987 2 0 0.00000 3 0
 132 2 0.08996 2 180 0.56973 3 0
 133 1 0.18991 3 0
 134 1 0.18991 3 0
 135 1 0.18991 3 0
 136 1 0.22989 2 180
 137 1 0.22989 2 180
 138 1 0.22989 2 180
 139 1 0.19990 3 0
 140 1 0.19990 3 0
 141 1 0.19990 3 0
 142 1 0.19990 3 0
 143 1 0.19990 3 0
 144 1 0.19990 3 0
 145 1 0.19491 3 0
 146 1 0.19990 3 0
 147 1 0.19491 3 0
 148 3 1.99904 3 180 0.39981 5 0 0.79962 6 0
 149 1 0.19990 3 0
 150 1 0.19491 3 0
 151 1 0.19491 3 0
 152 5 0.20990 1 180 0.38981 2 0 0.34983 3 180 0.10995 4 0 0.08996 6 180
 153 1 0.03998 3 0
 154 1 0.19491 3 0
 155 1 0.19491 3 0
 156 2 0.49976 3 0 0.49976 6 180
 157 1 0.19491 3 0
 158 4 0.15043 2 0 0.08126 3 180 0.10815 4 0 0.20380 5 0
 159 1 0.19491 3 0
 160 2 0.15992 1 180 0.38981 2 0
 161 1 0.19491 3 0
 162 1 0.19491 3 0
 163 3 0.93955 1 180 0.37982 2 0 0.10995 3 0
 164 3 0.93955 1 180 0.37982 2 0 0.10995 3 0
 165 1 0.19491 3 0
 166 1 0.19491 3 0
 167 1 0.19491 3 0
 168 1 0.15992 3 0
 169 1 0.49976 4 180
 170 1 0.19491 3 0
 171 4 0.38482 1 0 0.41980 2 0 0.07996 3 0 0.05497 4 0
 172 4 0.38482 1 0 0.41980 2 0 0.07996 3 0 0.05497 4 0
 173 4 0.38482 1 180 0.41980 2 0 0.07996 3 180 0.05497 4 0
 174 1 1.79914 1 0
 175 1 0.00000 1 0
 176 1 0.00000 3 0
 177 3 0.09995 1 180 0.59971 2 0 0.09995 3 180
 178 2 0.59971 1 180 0.04998 3 0
 179 3 0.59971 1 180 0.64969 2 0 0.04998 3 0
 180 1 0.00000 3 0
 181 1 0.00000 3 0
 182 1 0.30985 3 0
 183 1 0.30985 3 0
 184 3 0.98723 1 180 0.06667 2 0 0.24778 3 0
 185 2 0.72805 1 180 0.32784 3 0
 186 3 1.44761 1 180 0.61131 2 0 1.23391 3 0
 187 2 0.80771 1 180 0.49676 2 0
 188 2 0.23989 1 180 0.36982 3 0
 189 2 0.23989 1 180 0.36982 3 0
 190 2 0.23989 1 180 0.36982 3 0
 191 2 0.23989 1 180 0.36982 3 0
 192 2 0.52495 1 180 0.00990 3 180
 193 2 0.20730 1 180 0.50866 2 0
 194 3 0.11824 1 180 0.76903 2 0 0.92606 3 180
 195 2 0.23989 1 180 0.36982 3 0
 196 2 0.05018 1 180 0.67977 2 0
 197 1 0.22989 3 0
 198 1 0.17991 3 0
 199 2 0.76363 1 180 0.32415 3 0
 200 1 0.17991 3 0
 201 1 0.95095 3 0
 202 1 0.34464 3 180
 203 1 0.01829 3 180
 204 1 0.00000 6 180
 205 1 0.00000 6 180
 206 1 0.09995 3 0
 207 1 0.18991 3 0
 208 3 0.42150 3 0 0.59122 4 180 0.22999 6 180
 209 1 0.18491 3 0
 210 1 1.79914 1 0
 211 1 0.00000 1 0
 212 1 0.00000 1 0
 213 1 0.19990 3 0
 214 1 0.19990 3 0
 215 1 0.19990 3 0
 216 1 0.19990 3 0
 217 1 0.00000 1 0
 218 1 0.00000 1 0
 219 1 0.00000 1 0
 220 2 0.39981 1 0 0.59971 2 0
 221 2 0.39981 1 180 0.59971 2 0
 222 2 0.29986 1 0 -0.29986 4 0
 223 2 0.39981 1 180 0.59971 2 0
 224 1 0.00000 3 180
 225 1 0.00000 3 180
 226 2 0.39981 1 0 0.59971 2 0
 227 2 0.39981 1 180 0.59971 2 0
 228 2 0.29986 1 0 -0.29986 4 0
 229 1 0.00000 1 0
 230 1 0.00000 1 0
 231 1 0.00000 1 0
 232 1 0.10995 3 0
 233 1 0.10995 3 0
 234 1 0.10995 3 0
 235 1 0.10995 3 0
 236 1 0.10995 3 0
 237 1 0.00000 1 0
 238 1 0.00000 1 0
 239 1 0.10995 3 0
 240 1 1.39933 2 180
 241 1 1.39933 2 180
 242 1 1.39933 2 180
 243 1 2.49881 2 180
 244 1 1.39933 2 180
 245 1 1.39933 2 180
 246 1 2.49881 2 180
 247 1 0.10995 3 0
 248 1 0.04998 2 180
 249 1 0.19990 2 180
 250 1 0.19990 2 180
 251 1 0.84959 2 180
 252 1 2.49881 2 180
 253 1 2.49881 2 180
 254 1 2.49881 2 180
 255 1 2.49881 2 180
 256 1 2.49881 2 180
 257 1 2.49881 2 180
 258 1 2.49881 2 180
 259 1 2.49881 2 180
 260 1 0.00000 1 0
 261 1 0.00000 1 0
 262 1 0.00000 1 0
 263 1 0.00000 1 0
 264 1 0.00000 1 0
 265 1 0.00000 1 0
 266 1 0.00000 1 0
 267 1 0.00000 1 0
 268 1 0.00000 1 0
 269 1 0.00000 1 0
 270 1 0.00000 1 0
 271 1 0.00000 1 0
 272 1 0.00000 1 0
 273 1 0.00000 1 0
 274 1 0.00000 1 0
 275 1 0.00000 1 0
 276 1 0.00000 1 0
 277 1 0.00000 1 0
 278 1 0.00000 1 0
 279 1 0.00000 1 0
 280 1 0.00000 1 0
 281 1 0.00000 1 0
 282 1 0.00000 1 0
 283 1 0.00000 1 0
 284 1 0.00000 1 0
 285 1 0.00000 1 0
 286 1 0.00000 1 0
 287 1 0.00000 1 0
 288 1 0.00000 1 0
 289 1 0.00000 1 0
 290 1 0.00000 1 0
 291 1 1.17994 2 180
 292 1 0.00000 1 0
 293 1 0.00000 1 0
 294 1 0.00000 1 0
 295 1 0.00000 1 0
 296 1 0.00000 1 0
 297 1 0.00000 1 0
 298 1 0.00000 1 0
 299 1 0.00000 1 0
 300 1 0.00000 1 0
 301 1 0.00000 1 0
 302 1 0.00000 1 0
 303 1 0.00000 1 0
 304 1 0.00000 1 0
 305 1 0.00000 1 0
 306 1 0.49976 2 180
 307 1 0.99952 2 180
 308 1 0.99952 2 180
 309 1 0.99952 2 180
 310 1 1.39933 2 180
 311 1 2.99857 2 180
 312 1 2.99857 2 180
 313 1 0.98953 2 180
 314 3 1.32936 1 0 0.17991 2 0 0.31985 3 0
 315 3 1.29938 1 0 0.29986 2 0 0.41980 3 0
 316 3 1.29938 1 0 0.29986 2 0 0.41980 3 0
 317 3 1.32936 1 0 0.17991 2 0 0.31985 3 0
 318 3 1.32936 1 0 0.17991 2 0 0.31985 3 0
 319 3 1.29938 1 0 0.69967 2 0 0.13993 3 0
 320 1 2.49881 2 180
 321 1 2.49881 2 180
 322 1 0.00000 3 0
 323 1 0.00000 1 0
 324 4 0.52975 1 0 1.26939 2 180 0.13993 3 0 0.77963 4 0
 325 1 2.49881 2 180
 326 1 2.49881 2 180
 327 1 2.49881 2 180
 328 1 0.00000 1 0
 329 1 0.00000 1 0
 330 1 2.49881 2 180
 331 1 0.00000 1 0
 332 1 0.00000 1 0
 333 3 0.67968 1 180 0.09995 2 180 0.37982 3 0
 334 3 0.67968 1 180 0.09995 2 180 0.37982 3 0
 335 1 0.19990 3 0
 336 3 0.67968 1 180 0.09995 2 180 0.37982 3 0
 337 1 0.19990 3 0
 338 1 0.79962 3 0
 339 1 0.03998 3 0
 340 1 0.19990 3 0
 341 1 0.19990 1 180
 342 1 0.19990 1 180
 343 1 1.59924 3 180
 344 1 0.19990 3 0
 345 1 0.19990 3 0
 346 1 0.19990 3 0
 347 1 1.99904 1 180
 348 3 1.83912 1 180 0.83960 2 180 0.38981 3 180
 349 3 1.83912 1 180 0.83960 2 180 0.38981 3 180
 350 3 1.83912 1 180 0.83960 2 180 0.38981 3 180
 351 3 0.27987 1 180 0.49976 2 180 0.37982 3 0
 352 3 0.00000 1 180 0.37982 2 180 0.58972 3 180
 353 3 0.00000 1 180 0.37982 2 180 0.58972 3 180
 354 3 0.00000 1 180 0.37982 2 180 0.58972 3 180
 355 3 0.27987 1 180 0.49976 2 180 0.37982 3 0
 356 5 0.99952 1 0 0.89957 2 0 0.49976 3 180 0.29986 4 0 0.09995 6 0
 357 5 0.99952 1 180 0.89957 2 0 0.49976 3 0 0.29986 4 0 0.09995 6 0
 358 3 0.27987 1 180 0.49976 2 180 0.37982 3 0
 359 1 1.59924 3 180
 360 1 0.03998 3 0
 361 1 0.19990 1 180
 362 1 0.19990 3 0
 363 1 0.09995 3 0
 364 2 0.59971 1 0 0.44978 2 0
 365 1 0.09995 3 180
 366 1 0.09995 3 180
 367 1 0.03998 3 0
 368 1 0.19990 1 180
 369 1 1.59924 3 180
 370 1 0.79962 3 0
 371 2 0.55973 1 180 6.99666 2 180
 372 3 1.60923 1 180 1.28938 2 180 0.58972 3 180
 373 1 0.19990 3 0
 374 1 0.19990 1 180
 375 1 0.19990 3 0
 376 1 0.19990 3 0
 377 1 0.19990 3 0
 378 1 0.00000 1 180
 379 1 1.99904 1 180
 380 1 0.19990 1 180
 381 1 0.19990 1 180
 382 1 0.00000 1 180
 383 1 3.09852 2 180
 384 1 2.99857 2 180
 385 1 2.99857 2 180
 386 1 2.99857 2 180
 387 1 2.99857 2 180
 388 3 0.02999 1 0 0.54974 2 0 0.38981 3 180
 389 3 0.02999 1 0 0.54974 2 0 0.38981 3 180
 390 3 0.02999 1 0 0.54974 2 0 0.38981 3 180
 391 1 2.99857 2 180
 392 1 2.99857 2 180
 393 1 3.09852 2 180
 394 1 3.09852 2 180
 395 1 3.09852 2 180
 396 1 3.09852 2 180
 397 3 1.06949 1 0 0.23989 2 180 0.16992 3 180
 398 1 0.19990 2 180
 399 3 1.06949 1 0 0.23989 2 180 0.16992 3 180
 400 3 1.06949 1 0 0.23989 2 180 0.16992 3 180
 401 2 1.39933 2 180 0.19990 3 180
 402 2 0.29986 2 0 0.39981 3 0
 403 1 0.14993 2 180
 404 3 0.51975 1 180 0.61970 2 180 1.57925 3 0
 405 2 1.64921 1 180 0.49976 2 0
 406 1 0.04998 3 0
 407 3 0.51975 1 180 0.61970 2 180 1.57925 3 0
 408 3 0.51975 1 180 0.61970 2 180 1.57925 3 0
 409 2 0.94955 2 0 0.49976 3 0
 410 1 0.09995 3 0
 411 2 0.09995 2 0 0.39981 3 0
 412 1 0.00000 3 0
 413 1 2.49881 2 180
 414 1 2.99857 2 180
 415 1 2.99857 2 180
 416 1 2.99857 2 180
 417 1 4.99761 2 180
 418 1 6.49689 2 180
 419 1 2.99857 2 180
 420 3 0.35983 1 180 0.04998 2 0 0.18991 3 180
 421 3 0.35983 1 180 0.04998 2 0 0.18991 3 180
 422 3 0.35983 1 180 0.04998 2 0 0.18991 3 180
 423 1 2.49881 2 180
 424 1 2.49881 2 180
 425 1 2.99857 2 180
 426 1 0.37982 2 0
 427 2 0.24988 2 180 0.29986 3 0
 428 1 0.22989 2 180
 429 3 0.19990 1 0 0.26987 2 0 0.00000 3 0
 430 2 0.23989 1 180 0.36982 3 0
 431 1 0.14993 1 0
 432 2 2.74869 2 180 0.29986 4 0
 433 2 2.74869 2 180 0.29986 4 0
 434 1 2.59876 2 180
 435 1 2.59876 2 180
 436 2 2.74869 2 180 0.29986 4 0
 437 2 1.59924 1 0 2.49881 2 180
 438 2 1.59924 1 0 2.49881 2 180
 439 2 1.59924 1 0 2.49881 2 180
 440 2 1.59924 1 0 2.49881 2 180
 441 2 1.59924 1 0 2.49881 2 180
 442 2 1.15805 1 180 1.50318 2 0
 443 1 2.59876 2 180
 444 1 2.59876 2 180
 445 1 2.59876 2 180
 446 2 2.74869 2 180 0.29986 4 0
 447 2 2.74869 2 180 0.29986 4 0
 448 2 2.74869 2 180 0.29986 4 0
 449 2 1.57335 1 0 0.05198 2 180
 450 2 1.59924 1 0 2.49881 2 180
 451 2 1.59924 1 0 2.49881 2 180
 452 1 2.49881 2 180
 453 1 3.09852 2 180
 454 1 5.19752 2 180
 455 1 0.99952 2 180
 456 1 2.99857 2 180
 457 1 1.79914 1 0
 458 1 0.19990 3 0
 459 1 0.19990 3 0
 460 1 0.19990 3 0
 461 3 0.17991 1 0 0.05997 2 0 0.58972 3 0
 462 3 0.39981 1 180 0.29986 2 0 0.09995 3 0
 463 1 0.00000 1 0
 464 1 0.00000 1 0
 465 3 0.17991 1 0 0.05997 2 0 0.58972 3 0
 466 2 1.59924 1 0 2.49881 2 180
 467 2 1.59924 1 0 2.49881 2 180
 468 2 1.59924 1 0 2.49881 2 180
 469 2 1.59924 1 0 2.49881 2 180
 470 2 1.59924 1 0 2.49881 2 180
 471 2 0.23989 1 180 0.36982 3 0
 472 2 0.23989 1 180 0.36982 3 0
 473 3 0.99952 1 0 4.09804 2 0 0.89957 3 0
 474 2 0.39081 1 180 0.37282 3 0
 475 2 0.39081 1 180 0.37282 3 0
 476 1 0.18991 3 0
 477 1 0.19990 3 0
 478 1 0.19990 3 0
 479 1 0.18991 3 0
 480 1 0.00000 1 0
 481 1 0.04998 6 180
 482 1 0.09995 3 0
 483 1 0.39981 3 0
 484 1 0.15992 3 0
 485 1 2.99857 2 180
 486 1 2.99857 2 180
 487 1 2.99857 2 180
 488 1 2.99857 2 180
 489 1 2.99857 2 180
 490 1 5.49737 2 180
 491 1 1.99904 2 180
 492 1 1.79914 1 0
 493 1 5.19752 2 180
 494 1 9.99522 2 180
 495 2 0.55973 1 180 0.49976 2 180
 496 1 0.99952 2 180
 497 1 0.99952 2 180
 498 2 1.09947 1 180 0.69967 2 180
 499 2 1.09947 1 180 0.69967 2 180
 500 1 0.18991 3 0
 501 1 0.29986 3 0
 502 1 5.19752 2 180
 503 1 0.29986 3 0
 504 1 8.49594 2 180
 505 1 11.99427 2 180
 506 1 8.49594 2 180
 507 1 6.99666 2 180
 508 1 6.99666 2 180
 509 1 2.49881 2 180
 510 1 2.49881 2 180
 511 1 2.99857 2 180
 512 2 2.74869 2 180 0.29986 4 0
 513 2 2.74869 2 180 0.29986 4 0
 514 1 2.59876 2 180
 515 1 2.59876 2 180
 516 2 2.74869 2 180 0.29986 4 0
 517 2 1.59924 1 0 2.49881 2 180
 518 2 1.59924 1 0 2.49881 2 180
 519 2 1.59924 1 0 2.49881 2 180
 520 2 1.59924 1 0 2.49881 2 180
 521 2 1.59924 1 0 2.49881 2 180
 522 2 1.59924 1 0 2.49881 2 180
 523 2 1.59924 1 0 2.49881 2 180
 524 2 1.59924 1 0 2.49881 2 180
 525 2 1.59924 1 0 2.49881 2 180
 526 2 1.59924 1 0 2.49881 2 180
 527 2 1.59924 1 0 2.49881 2 180
 528 2 1.59924 1 0 2.49881 2 180
 529 2 1.59924 1 0 2.49881 2 180
 530 2 1.59924 1 0 2.49881 2 180
 531 2 1.59924 1 0 2.49881 2 180
 532 2 1.59924 1 0 2.49881 2 180
 533 1 0.10995 3 0
 534 1 3.09852 2 180
 535 1 2.99857 2 180
 536 1 2.99857 2 180
 537 1 2.49881 2 180
 538 1 1.79914 1 0
 539 3 0.11994 1 180 0.35983 2 180 0.40980 3 0
 540 1 0.00000 1 0
 541 1 0.00000 1 0
 542 1 0.00000 1 0
 543 3 0.11994 1 180 0.35983 2 180 0.40980 3 0
 544 1 0.39981 1 0
 545 4 0.14993 1 0 0.09995 2 180 0.14993 4 0 0.09995 6 180
 546 4 0.14993 1 0 0.09995 2 180 0.14993 4 0 0.09995 6 180
 547 1 0.18991 3 0
 548 1 0.18991 3 0
 549 1 0.18991 3 0
 550 1 0.19990 3 0
 551 1 1.79914 1 0
 552 1 0.00000 6 180
 553 1 0.00000 6 180
 554 1 0.09995 3 0
 555 1 0.04998 6 180
 556 1 0.04998 6 180
 557 1 0.04998 6 180
 558 3 0.87958 1 180 0.00000 2 180 1.89909 3 0
 559 3 0.87958 1 180 0.00000 2 180 1.89909 3 0
 560 1 0.19990 3 0
 561 1 0.19990 3 0
 562 4 0.38482 1 0 0.41980 2 0 0.07996 3 0 0.05497 4 0
 563 4 0.38482 1 180 0.41980 2 0 0.07996 3 180 0.05497 4 0
 564 1 0.11994 3 0
 565 2 0.49976 1 180 1.29938 3 180
 566 2 0.49976 1 180 1.29938 3 180
 567 3 0.87958 1 180 0.00000 2 180 1.89909 3 0
 568 1 0.18991 3 0
 569 1 0.09995 3 0
 570 1 0.09995 3 0
 571 1 0.09995 3 0
 572 2 1.59924 1 0 2.49881 2 180
 573 2 1.59924 1 0 2.49881 2 180
 574 2 1.59924 1 0 2.49881 2 180
 575 2 1.59924 1 0 2.49881 2 180
 576 2 1.59924 1 0 2.49881 2 180
 577 1 0.00000 1 0
 578 3 0.99952 1 0 4.09804 2 0 0.89957 3 0
 579 1 2.24892 2 180
 580 3 0.29986 1 0 0.34983 2 0 1.75916 3 0
 581 1 0.19990 3 0
 582 3 0.29986 1 0 0.34983 2 0 1.75916 3 0
 583 1 0.19990 3 0
 584 3 0.29986 1 0 0.34983 2 0 1.75916 3 0
 585 2 0.59971 1 180 1.09947 2 0
 586 1 0.09995 3 0
 587 2 0.94955 2 0 0.49976 3 0
 588 1 0.27987 3 0
 589 2 0.23989 1 180 0.36982 3 0
 590 1 0.27987 3 0
 591 2 0.23989 1 180 0.36982 3 0
 592 1 2.04902 2 180
 593 1 0.27987 3 0
 594 2 0.23989 1 180 0.36982 3 0
 595 2 0.23989 1 180 0.36982 3 0
 596 1 0.27987 3 0
 597 1 0.27987 3 0
 598 1 0.28386 3 0
 599 3 0.26987 1 0 0.21989 2 0 0.06997 3 0
 600 1 0.28386 3 0
 601 3 0.26987 1 0 0.21989 2 0 0.06997 3 0
 602 1 0.00000 3 0
 603 1 0.00000 1 0
 604 1 0.39981 3 0
 605 1 0.15992 3 0
 606 1 9.99522 2 180
 607 1 5.19752 2 180
 608 1 9.99522 2 180
 609 1 0.15992 3 0
 610 1 2.99857 2 180
 611 4 0.72965 1 0 1.51927 3 0 0.47977 4 0 0.30985 5 0
 612 1 0.09995 3 180
 613 1 2.59876 2 180
 614 1 2.59876 2 180
 615 1 1.79914 1 0
 616 1 11.99427 2 180
 617 1 8.49594 2 180
 618 1 6.99666 2 180
 619 1 8.49594 2 180
 620 1 5.99713 2 180
 621 1 3.99809 2 180
 622 1 3.99809 2 180
 623 1 3.99809 2 180
 624 1 3.99809 2 180
 625 3 0.28986 1 180 0.65968 2 180 1.16944 3 0
 626 3 0.28986 1 180 0.65968 2 180 1.16944 3 0
 627 3 0.28986 1 180 0.65968 2 180 1.16944 3 0
 628 1 4.19799 2 180
 629 1 2.39885 2 180
 630 1 2.99857 2 180
 631 1 3.99809 2 180
 632 1 2.99857 2 180
 633 1 4.19799 2 180
 634 1 4.19799 2 180
 635 1 4.19799 2 180
 636 1 4.19799 2 180
 637 1 2.39885 2 180
 638 1 4.19799 2 180
 639 1 4.19799 2 180
 640 1 4.19799 2 180
 641 1 2.99857 2 180
 642 1 3.99809 2 180
 643 1 2.99857 2 180
 644 1 2.79866 2 180
 645 1 1.19943 2 180
 646 1 1.19943 2 180
 647 1 2.59876 2 180
 648 1 0.39981 2 180
 649 1 0.99952 2 180
 650 1 2.79866 2 180
 651 1 2.79866 2 180
 652 1 2.59876 2 180
 653 1 4.99761 2 180
 654 1 2.49881 2 180
 655 1 2.49881 2 180
 656 1 3.49833 2 180
 657 1 3.49833 2 180
 658 1 2.99857 2 180
 659 1 2.99857 2 180
 660 1 3.99809 2 180
 661 1 3.99809 2 180
 662 1 3.99809 2 180
 663 1 6.49689 2 180
 664 1 2.99857 2 180
 665 1 2.99857 2 180
 666 1 0.01000 3 0
 667 1 0.19990 3 0
 668 1 0.00000 3 0
 669 1 0.15992 3 0
 670 1 0.15992 3 0
 671 1 0.03998 3 0
 672 1 0.00000 3 0
 673 1 0.00000 3 0
 674 1 0.27987 3 0
 675 1 0.19990 3 0
 676 1 0.41980 3 0
 677 1 0.41980 3 0
 678 1 0.00000 3 0
 679 1 0.18991 3 0
 680 1 0.00000 3 0
 681 1 0.00000 3 0
 682 1 0.00000 3 0
 683 1 0.00000 3 0
 684 1 0.10995 3 0
 685 1 0.01000 3 0
 686 1 0.19990 3 0
 687 1 0.00000 3 0
 688 1 0.00000 3 0
 689 1 0.00000 3 0
 690 1 0.27987 3 0
 691 1 0.27987 3 0
 692 1 0.27987 3 0
 693 1 0.14993 3 180
 694 1 0.27987 3 0
 695 1 0.27987 3 0
 696 1 0.19990 3 0
 697 1 0.13993 3 0
 698 1 0.18991 3 0
 699 1 0.18991 3 0
 700 1 0.18991 3 0
 701 1 0.18991 3 0
 702 1 0.00000 6 180
 703 1 0.00000 6 180
 704 1 0.04998 6 180
 705 1 0.15992 3 0
 706 1 0.09995 3 0
 707 1 0.00000 6 0
 708 1 0.09995 3 0
 709 1 0.09995 3 0
 710 1 0.00000 3 0
 711 1 0.27987 3 0
 712 1 0.27987 3 0
 713 1 0.28386 3 0
 714 1 0.19990 3 0
 715 1 0.00000 3 0
 716 1 0.00000 3 0
 717 1 0.00000 3 0
 718 1 0.19990 3 0
 719 1 0.09995 3 0
 720 1 0.09995 3 0
 721 1 0.09995 3 0
 722 1 0.00000 3 180
 723 1 0.09995 3 0
 724 1 0.09995 3 0
 725 1 0.07996 3 0
 726 1 0.07996 3 0
 727 1 0.19990 3 0
 728 1 0.19990 3 0
 729 1 0.19990 3 0
 730 1 0.18991 3 0
 731 1 0.18991 3 0
 732 1 0.18991 3 0
 733 1 0.00000 3 0
 734 1 0.18991 3 0
 735 1 0.04998 6 180
 736 1 0.19990 3 0
 737 1 0.19990 3 0
 738 1 0.19990 3 0
 739 1 0.19990 3 0
 740 1 0.19990 3 0
 741 1 0.19990 3 0
 742 1 0.00000 3 0
 743 1 0.19990 1 180
 744 1 0.19990 1 180
 745 3 0.34983 1 180 0.41980 2 180 1.90909 3 180
 746 3 1.40933 1 180 1.28938 2 180 0.58972 3 180
 747 3 0.23989 1 180 0.74964 2 180 1.34935 3 180
 748 3 0.17991 1 180 0.63969 2 180 0.86958 3 180
 749 3 0.31985 1 180 0.60971 2 180 0.71966 3 180
 750 3 1.27939 1 180 0.93955 2 180 1.56925 3 180
 751 3 0.64969 1 180 0.24988 2 180 1.16944 3 180
 752 3 1.08948 1 180 0.49976 2 180 1.16944 3 180
 753 1 0.19990 3 0
 754 3 0.40980 1 180 0.31985 2 180 1.18943 3 180
 755 3 0.17991 1 180 0.63969 2 180 0.86958 3 180
 756 3 1.60923 1 180 1.28938 2 180 0.58972 3 180
 757 3 0.10995 1 0 0.97953 2 180 1.59924 3 180
 758 3 1.74916 1 180 0.12994 2 0 1.85911 3 180
 759 3 0.10995 1 0 0.97953 2 180 1.59924 3 180
 760 3 0.09995 1 180 0.51975 2 180 0.28986 3 180
 761 3 0.78962 1 180 0.38981 2 180 0.98953 3 180
 762 3 0.13993 1 180 0.25988 2 180 0.32984 3 180
 763 3 1.02951 1 0 1.40933 2 0 0.65968 3 0
 764 1 0.19990 3 0
 765 1 0.19990 1 180
 766 3 1.19943 1 180 0.45978 2 180 0.04998 3 180
 767 1 1.49928 1 0
 768 2 0.29986 2 0 0.49976 3 180
 769 1 0.61970 4 180
 770 1 0.79962 3 0
 771 1 0.79962 3 0
 772 1 1.79914 1 0
 773 1 1.79914 1 0
 774 4 0.01499 1 0 0.29786 2 0 0.07596 3 180 0.14793 6 0
 775 1 1.79914 1 0
 776 1 1.79914 1 0
 777 1 1.79914 1 0
 778 1 1.79914 1 0
 779 1 1.79914 1 0
 780 1 1.79914 1 0
 781 1 0.00000 1 0
 782 4 0.01499 1 0 0.29786 2 0 0.07596 3 180 0.14793 6 0
 783 1 1.79914 1 0
 784 1 1.79914 1 0
 785 1 1.79914 1 0
 786 1 1.79914 1 0
 787 1 1.79914 1 0
 788 4 0.95954 2 0 0.16992 3 0 0.40980 4 0 0.26987 5 0
 789 2 1.19943 2 180 0.99952 3 180
 790 1 0.00000 3 0
 791 1 1.79914 1 0
 792 1 0.00000 3 0
 793 1 1.79914 1 0
 794 3 4.07805 1 0 1.55925 2 180 1.79914 3 0
 795 3 4.07805 1 0 1.55925 2 180 1.79914 3 0
 796 1 0.19990 3 0
 797 1 0.19990 3 0
 798 1 0.03998 3 0
 799 3 1.08948 1 180 0.31985 2 180 0.09995 3 0
 800 1 0.19990 3 0
 801 3 0.34983 1 180 0.41980 2 180 1.90909 3 180
 802 3 1.40933 1 180 1.28938 2 180 0.58972 3 180
 803 3 0.23989 1 180 0.74964 2 180 1.34935 3 180
 804 3 0.17991 1 180 0.63969 2 180 0.86958 3 180
 805 3 1.27939 1 180 0.93955 2 180 1.56925 3 180
 806 3 0.64969 1 180 0.24988 2 180 1.16944 3 180
 807 3 1.08948 1 180 0.49976 2 180 1.16944 3 180
 808 3 0.31985 1 180 0.60971 2 180 0.71966 3 180
 809 3 1.60923 1 180 1.28938 2 180 0.58972 3 180
 810 3 0.10995 1 0 0.97953 2 180 1.59924 3 180
 811 3 1.74916 1 180 0.12994 2 0 1.85911 3 180
 812 1 0.09995 3 0
 813 1 0.79962 3 0
 814 1 0.79962 3 0
 815 1 0.79962 3 0
 816 1 0.00000 3 180
 817 1 0.00000 3 180
 818 1 0.00000 3 180
 819 1 0.00000 3 0
 820 1 0.19990 1 180
 821 1 1.79914 1 0
 822 1 0.00000 1 0
 823 1 1.79914 1 0
 824 1 0.19990 1 180
 825 1 0.00000 3 0
 826 1 0.79962 3 0
 827 1 0.79962 3 0
 828 1 0.00000 1 0
 829 1 1.79914 1 0
 830 1 1.79914 1 0
 831 1 0.19990 1 180
 832 1 0.19990 1 180
 833 1 1.79914 1 0
 834 1 0.00000 3 0
 835 1 0.00000 3 0
 836 5 0.01499 1 0 0.29786 2 0 0.07596 3 180 0.61870 4 0 0.14793 6 0
 837 1 0.19990 1 180
 838 1 0.83420 3 0
 839 1 1.63342 3 0
 840 1 2.03773 3 180
 841 2 5.94576 1 0 6.61924 2 180
 842 2 5.94576 1 0 6.61924 2 180
 843 2 5.94576 1 0 6.61924 2 180
 844 1 0.19990 1 180
 845 3 0.34983 1 180 0.41980 2 180 1.90909 3 180
 846 3 1.40933 1 180 1.28938 2 180 0.58972 3 180
 847 3 0.23989 1 180 0.74964 2 180 1.34935 3 180
 848 3 0.17991 1 180 0.63969 2 180 0.86958 3 180
 849 3 0.31985 1 180 0.60971 2 180 0.71966 3 180
 850 3 1.27939 1 180 0.93955 2 180 1.56925 3 180
 851 3 0.64969 1 180 0.24988 2 180 1.16944 3 180
 852 3 1.08948 1 180 0.49976 2 180 1.16944 3 180
 853 3 0.10995 1 0 0.97953 2 180 1.59924 3 180
 854 3 1.74916 1 180 0.12994 2 0 1.85911 3 180
 855 3 0.09995 1 180 0.51975 2 180 0.28986 3 180
 856 3 0.78962 1 180 0.38981 2 180 0.98953 3 180
 857 3 0.13993 1 180 0.25988 2 180 0.32984 3 180
 858 2 0.55973 1 180 6.99666 2 180
 859 3 0.34983 1 0 0.36982 2 0 0.18991 3 180
 860 1 0.00000 3 0
 861 2 0.49976 1 180 1.29938 3 180
 862 1 0.02999 3 0
 863 1 0.02999 3 0
 864 1 0.11994 3 0
 865 2 0.49976 1 180 1.29938 3 180
 866 1 0.11994 3 0
 867 1 0.11994 3 0
 868 1 0.04998 3 180
 869 1 0.04998 3 180
 870 2 2.74869 2 180 0.29986 4 0
 871 2 2.74869 2 180 0.29986 4 0
 872 2 1.59924 1 0 2.49881 2 180
 873 2 1.59924 1 0 2.49881 2 180
 874 2 1.59924 1 0 2.49881 2 180
 875 2 1.59924 1 0 2.49881 2 180
 876 2 1.59924 1 0 2.49881 2 180
 877 2 1.59924 1 0 2.49881 2 180
 878 2 1.59924 1 0 2.49881 2 180
 879 2 1.59924 1 0 2.49881 2 180
 880 2 1.59924 1 0 2.49881 2 180
 881 2 1.59924 1 0 2.49881 2 180
 882 2 1.59924 1 0 2.49881 2 180
 883 1 2.49881 2 180
 884 3 0.97953 1 0 0.96954 2 180 0.05997 3 180
 885 1 0.79962 3 0
 886 1 0.00000 3 180
 887 1 0.09995 3 0
 888 1 0.09995 3 0
 889 1 0.07996 3 0
 890 1 0.07996 3 0
 891 3 1.01951 1 0 0.42979 2 180 0.84959 3 0
 892 1 0.79962 3 0
 893 2 2.74869 2 180 0.29986 4 0
 894 2 2.74869 2 180 0.29986 4 0
 895 1 0.09995 3 0
 896 1 0.09995 3 0
 897 1 0.09995 3 0
 898 1 0.07996 3 0
 899 1 0.09995 3 0
 900 1 0.09995 3 0
 901 1 0.09995 3 0
 902 1 0.07996 3 0
 903 1 0.07996 3 0
 904 1 0.07996 3 0
 905 1 0.07996 3 0
 906 1 0.07996 3 0
 907 1 0.07996 3 0
 908 1 0.07996 3 0
 909 1 0.07996 3 0
 910 3 0.56973 1 0 0.14993 2 180 0.10995 3 180
 911 1 13.99331 2 180
 912 1 0.19581 3 0
 913 1 13.99331 2 180
 914 1 11.99427 2 180
 915 1 0.19581 3 0
 916 1 1.39933 2 180
 917 1 0.03998 3 0
 918 1 0.19990 3 0
 919 1 0.19990 3 0
 920 1 0.19990 3 0
 921 1 0.19990 3 0
 922 1 0.13993 3 0
 923 1 0.00000 3 0
 924 1 0.28386 3 0
 925 1 0.19990 3 0
 926 1 0.19990 3 0
 927 1 0.19990 3 0
 928 1 0.13993 3 0
 929 1 0.99952 2 180
 930 1 5.19752 2 180
 931 1 0.00000 3 0
 932 1 0.11994 3 0
 933 1 0.00000 3 0
 934 1 0.00000 3 0
 935 1 0.00000 3 0
 936 1 0.11994 3 0
 937 1 0.19990 3 0
 938 1 0.19990 3 0
 939 1 5.19752 2 180
 940 1 0.99952 2 180
 941 1 0.29986 3 0
 942 1 0.99952 2 180
 943 1 0.99952 2 180
 944 1 5.19752 2 180
 945 1 0.29986 3 180
 946 1 0.29986 3 180
 947 1 0.00000 2 180
 948 1 0.00000 2 180
 949 1 0.00000 2 180
 950 1 0.29986 3 0
 951 1 5.19752 2 180
 952 1 0.00000 2 180
 953 1 0.00000 2 180
 954 1 5.19752 2 180
 955 1 5.19752 2 180
 956 1 5.19752 2 180
 957 1 4.99761 2 180
 958 1 5.19752 2 180
 959 1 3.19847 2 180
 960 1 4.19799 2 180
 961 1 4.99761 2 180
 962 1 0.79962 3 0
 963 1 0.09995 3 0
 964 1 0.07996 3 0
 965 1 0.00000 1 0
 966 1 0.00000 1 0
 967 1 0.19990 3 0
 968 1 0.19990 3 0
 969 1 0.19990 3 0
 970 1 0.19990 3 0
 971 1 0.19990 3 0
 972 1 0.19990 3 0
 973 1 0.19990 3 0
 974 1 0.19990 3 0
 975 1 0.19990 3 0
 976 1 0.19990 3 0
 977 1 0.19990 3 0
 978 1 0.19990 3 0
 979 1 0.19990 3 0
 980 1 0.19990 3 0
 981 1 0.19990 3 0
 982 1 0.19990 3 0
 983 1 0.19990 3 0
 984 1 0.19990 3 0
 985 1 0.19990 3 0
 986 1 0.19990 3 0
 987 1 0.19990 3 0
 988 1 0.19990 3 0
 989 1 0.19990 3 0
 990 1 0.19990 3 0
 991 1 0.00000 1 0
 992 1 0.00000 1 0
 993 1 0.11994 3 0
 994 1 0.00000 3 0
 995 1 0.00000 3 0
 996 1 0.18991 3 0
 997 1 0.18991 3 0
 998 1 0.09995 6 180
 999 1 0.09995 6 180
 1000 1 0.19990 3 0
 1001 1 0.19491 3 0
 1002 1 0.19491 3 0
 1003 1 0.19491 3 0
 1004 1 0.19491 3 0
 1005 1 0.19990 3 0
 1006 1 0.19990 3 0
 1007 1 0.19990 3 0
 1008 1 0.19990 3 0
 1009 1 0.00000 3 0
 1010 1 0.19491 3 0
 1011 1 0.19491 3 0
 1012 1 0.19491 3 0
 1013 1 0.19491 3 0
 1014 1 0.19491 3 0
 1015 1 0.19491 3 0
 1016 1 0.19491 3 0
 1017 1 0.19491 3 0
 1018 1 0.19990 3 0
 1019 1 0.19990 3 0
 1020 1 0.19990 3 0
 1021 1 0.19990 3 0
 1022 1 0.19990 3 0
 1023 1 0.19990 3 0
 1024 1 0.19990 3 0
 1025 1 0.19990 3 0
 1026 1 0.03998 3 0
 1027 1 0.19491 3 0
 1028 1 0.19491 3 0
 1029 1 0.19491 3 0
 1030 1 0.19491 3 0
 1031 1 0.19990 3 0
 1032 1 0.49976 3 0
 1033 1 0.19491 3 0
 1034 1 0.19990 3 0
 1035 1 0.19491 3 0
 1036 1 0.19491 3 0
 1037 1 0.19491 3 0
 1038 1 0.19491 3 0
 1039 1 0.01000 1 0
 1040 1 0.01000 1 0
 1041 1 0.19491 3 0
 1042 1 0.19491 3 0
 1043 1 0.19491 3 0
 1044 1 0.15992 3 0
 1045 1 0.15992 3 0
 1046 1 0.19990 3 0
 1047 1 0.18491 3 0
 1048 1 0.00000 3 0
 1049 1 0.09995 6 180
 1050 1 0.09995 6 180
 1051 1 0.00000 3 0
 1052 1 0.19491 3 0
 1053 1 0.19491 3 0
 1054 1 0.19491 3 0
 1055 1 0.19491 3 0
 1056 1 0.19990 3 0
 1057 1 0.19990 3 0
 1058 1 0.03998 3 0
 1059 1 0.19491 3 0
 1060 1 0.19491 3 0
 1061 1 0.19491 3 0
 1062 1 0.49976 3 0
 1063 1 0.19491 3 0
 1064 1 0.19990 3 0
 1065 1 0.18491 3 0
 1066 1 0.19491 3 0
 1067 1 0.19491 3 0
 1068 1 0.00000 1 0
 1069 1 0.00000 1 0
 1070 1 0.19990 3 0
 1071 1 0.19990 3 0
 1072 1 0.19990 3 0
 1073 1 0.19990 3 0
 1074 1 0.19990 3 0
 1075 1 0.19990 3 0
 1076 1 0.19990 3 0
 1077 1 0.19990 3 0
 1078 1 0.19990 3 0
 1079 1 0.19990 3 0
 1080 1 0.19990 3 0
 1081 1 0.19990 3 0
 1082 1 0.19990 3 0
 1083 1 0.19990 3 0
 1084 1 0.19990 3 0
 1085 1 0.19990 3 0
 1086 1 0.79962 3 0
 1087 1 0.09995 3 0
 1088 1 0.07996 3 0
 1089 1 0.00000 1 0
 1090 1 0.00000 1 0
 1091 1 0.00000 3 0
 1092 1 0.41980 3 0
 1093 1 0.00000 1 0
 1094 1 0.00000 1 0
 1095 1 0.00000 1 0
 1096 1 0.00000 3 180
 1097 1 0.00000 3 0
 1098 1 0.14993 3 0
 1099 1 0.09995 3 0
 1100 1 0.19990 5 180
 1101 1 0.10995 3 0
 1102 1 0.10995 3 0
 1103 1 0.10995 3 0
 1104 1 0.10995 3 0
 1105 1 0.10995 3 0
 1106 1 0.10995 3 0
 1107 1 0.07996 3 0
 1108 1 0.07996 3 0
 1109 1 0.07996 3 0
 1110 1 0.07996 3 0
 1111 1 0.07996 3 0
 1112 1 0.07996 3 0
 1113 1 0.07996 3 0
 1114 1 0.07996 3 0
 1115 1 0.07996 3 0
 1116 1 0.07996 3 0
 1117 1 0.07996 3 0
 1118 1 0.07996 3 0
 1119 1 0.07996 3 0
 1120 1 0.07996 3 0
 1121 1 4.99761 2 180
 1122 1 4.99761 2 180
 1123 1 4.99761 2 180
 1124 1 0.99952 2 180
 1125 1 0.99952 2 180
 1126 1 0.99952 2 180
 1127 1 2.49881 2 180
 1128 1 2.99857 2 180
 1129 1 2.99857 2 180
 1130 1 0.99952 2 180
 1131 1 2.99857 2 180
 1132 1 0.14993 3 0
 1133 1 0.00000 2 180
 1134 1 0.99952 2 180
 1135 1 0.99952 2 180
 1136 1 2.99857 2 180
 1137 1 0.00000 2 180
 1138 1 1.99904 2 180
 1139 1 1.99904 2 180
 1140 1 1.99904 2 180
 1141 1 2.99857 2 180
 1142 1 0.99952 2 180
 1143 1 2.99857 2 180
 1144 1 0.00000 3 0
 1145 3 0.23989 1 0 0.14993 2 0 0.26987 3 0
 1146 1 0.19990 3 0
 1147 1 0.19990 3 0
 1148 1 0.19990 3 0
 1149 1 0.19990 3 0
 1150 2 0.39981 1 0 0.59971 2 0
 1151 2 0.39981 1 180 0.59971 2 0
 1152 2 0.29986 1 0 -0.29986 4 0
 1153 2 0.39981 1 180 0.59971 2 0
 1154 1 0.00000 1 0
 1155 1 0.00000 1 0
 1156 1 0.00000 1 0
 1157 1 0.00000 1 0
 1158 1 0.00000 1 0
 1159 1 0.00000 1 0
 1160 1 0.00000 1 0
 1161 1 0.00000 1 0
 1162 1 0.00000 1 0
 1163 3 0.10995 1 180 0.94955 2 180 0.28986 3 180
 1164 1 0.00000 1 0
 1165 1 0.00000 1 0
 1166 1 0.00000 1 0
 1167 1 0.00000 1 0
 1168 3 0.15992 1 180 1.06949 2 180 0.24988 3 180
 1169 1 0.00000 1 0
 1170 1 0.00000 1 0
 1171 1 0.00000 1 0
 1172 1 0.00000 1 0
 1173 2 0.39981 1 0 0.59971 2 0
 1174 2 0.39981 1 180 0.59971 2 0
 1175 2 0.29986 1 0 -0.29986 4 0
 1176 1 0.03998 3 0
 1177 3 2.00904 1 180 2.55878 2 0 2.38886 3 0
 1178 3 1.58924 1 180 0.71966 3 0 0.02999 4 0
 1179 1 0.14993 3 0
 1180 3 0.67968 1 0 0.70966 2 0 0.32984 3 0
 1181 1 0.03998 3 0
 1182 2 0.39981 1 0 0.59971 2 0
 1183 2 0.39981 1 180 0.59971 2 0
 1184 2 0.29986 1 0 -0.29986 4 0
 1185 2 0.39981 1 180 0.59971 2 0
 1186 1 0.00000 1 0
 1187 1 0.00000 1 0
 1188 1 0.00000 1 0
 1189 1 0.00000 1 0
 1190 1 0.59971 1 0
 1191 1 0.00000 1 0
 1192 1 0.00000 1 0
 1193 1 0.00000 1 0
 1194 1 0.59971 1 0
 1195 3 0.00000 1 0 0.75694 2 180 3.09022 3 0
 1196 1 0.00000 1 0
 1197 1 0.00000 1 0
 1198 1 0.00000 3 0
 1199 1 0.00000 1 0
 1200 1 0.59971 1 0
 1201 1 0.00000 3 0
 1202 1 0.00000 1 0
 1203 1 0.00000 3 0
 1204 1 0.00000 3 0
 1205 3 0.03998 1 0 1.06949 2 180 0.24988 3 180
 1206 1 0.00000 1 0
 1207 1 0.00000 1 0
 1208 1 0.59971 1 0
 1209 3 0.00000 1 0 0.75694 2 180 3.09022 3 0
 1210 1 0.00000 1 0
 1211 1 0.00000 1 0
 1212 1 0.00000 1 0
 1213 1 0.00000 1 0
 1214 1 0.59971 1 0
 1215 2 0.39981 1 0 0.59971 2 0
 1216 2 0.39981 1 180 0.59971 2 0
 1217 2 0.29986 1 0 -0.29986 4 0
 1218 4 0.69967 1 0 1.19943 2 180 0.09995 3 0 0.14993 4 0
 1219 1 0.00000 3 0
 1220 3 1.98905 1 0 0.63969 2 180 0.27987 3 180
 1221 1 0.39981 1 0
 1222 1 0.19990 3 0
 1223 3 0.08996 1 0 0.18991 2 180 0.16992 3 0
 1224 3 0.46978 1 0 1.59924 2 0 0.38981 3 180
 1225 1 0.19990 3 0
 1226 3 0.33984 1 0 0.49976 2 180 1.42932 3 0
 1227 3 0.17991 1 180 0.18991 2 180 1.45930 3 0
 1228 1 0.19990 3 0
 1229 3 0.41980 1 180 0.67968 2 180 1.05949 3 0
 1230 1 0.19990 3 0
 1231 1 0.19990 3 0
 1232 1 0.19990 3 0
 1233 1 0.19990 3 0
 1234 1 0.19990 3 0
 1235 2 0.11894 2 0 0.01299 6 180
 1236 3 0.11894 2 0 0.13194 4 180 0.01299 6 180
 1237 1 0.19990 3 0
 1238 1 0.19990 3 0
 1239 1 0.19990 3 0
 1240 1 0.19990 3 0
 1241 1 0.19990 3 0
 1242 1 0.19990 3 0
 1243 1 0.19990 3 0
 1244 1 0.19990 3 0
 1245 1 0.19990 3 0
 1246 1 0.19990 3 0
 1247 1 0.19990 3 0
 1248 1 0.19990 3 0
 1249 1 0.19990 3 0
 1250 1 0.19990 3 0
 1251 1 0.19990 3 0
 1252 1 0.19990 3 0
 1253 1 0.19990 3 0
 1254 3 0.08996 1 0 0.18991 2 180 0.16992 3 0
 1255 1 0.19990 3 0
 1256 1 0.19990 3 0
 1257 1 0.19990 3 0
 1258 1 0.19990 3 0
 1259 1 0.19990 3 0
 1260 1 0.19990 3 0
 1261 1 0.19990 3 0
 1262 1 0.19990 3 0
 1263 1 0.19990 3 0
 1264 1 0.19990 3 0
 1265 1 0.19990 3 0
 1266 1 0.19990 3 0
 1267 1 0.19990 3 0
 1268 1 0.19990 3 0
 1269 1 0.19990 3 0
 1270 1 0.19990 3 0
 1271 3 0.94955 1 180 1.32936 2 0 0.07996 3 180
 1272 3 0.94955 1 180 1.32936 2 0 0.07996 3 180
 1273 3 0.51975 1 180 0.61970 2 180 1.57925 3 0
 1274 1 0.19990 3 0
 1275 1 0.19491 3 0
 1276 1 0.19990 3 0
 1277 1 0.39981 1 0
 1278 1 0.39981 1 0
 1279 1 0.39981 1 0
 1280 1 0.39981 1 0
 1281 1 0.19990 3 0
 1282 1 0.19990 3 0
 1283 3 0.33984 1 0 0.49976 2 180 1.42932 3 0
 1284 3 0.17991 1 180 0.18991 2 180 1.45930 3 0
 1285 1 0.19990 3 0
 1286 1 0.04998 6 180
 1287 4 0.02289 1 180 1.67510 2 180 0.10115 3 0 0.11904 4 0
 1288 3 0.51885 2 180 0.35923 3 180 0.46778 6 0
 1289 3 0.00040 1 0 1.76766 2 0 1.03171 3 0
 1290 2 2.40185 1 0 3.63326 2 180
 1291 1 0.01000 2 0
 1292 3 0.59222 1 180 2.87802 2 180 0.41830 3 180
 1293 2 0.11894 2 0 0.01299 6 180
 1294 3 0.11894 2 0 0.13194 4 180 0.01299 6 180
 1295 1 0.19990 3 0
 1296 1 0.19990 3 0
 1297 1 0.19990 3 0
 1298 1 0.19990 3 0
 1299 1 0.19990 3 0
 1300 3 0.51975 1 180 0.61970 2 180 1.57925 3 0
 1301 1 0.19990 3 0
 1302 1 0.19990 3 0
 1303 1 0.19990 3 0
 1304 1 0.19990 3 0
 1305 1 0.19990 3 0
 1306 1 0.19990 3 0
 1307 1 0.19990 3 0
 1308 1 0.19990 3 0
 1309 1 0.19990 3 0
 1310 1 0.39981 1 0
 1311 1 0.19990 3 0
 1312 3 0.08996 1 0 0.18991 2 180 0.16992 3 0
 1313 1 0.19990 3 0
 1314 3 0.33984 1 0 0.49976 2 180 1.42932 3 0
 1315 3 0.17991 1 180 0.18991 2 180 1.45930 3 0
 1316 1 0.19990 3 0
 1317 1 0.39981 1 0
 1318 1 0.59971 1 0
 1319 1 0.39981 1 0
 1320 1 0.39981 1 0
 1321 1 0.19990 3 0
 1322 1 0.19990 3 0
 1323 1 0.19990 3 0
 1324 1 0.19990 3 0
 1325 1 0.19990 3 0
 1326 1 0.19990 3 0
 1327 3 0.41980 1 180 0.67968 2 180 1.05949 3 0
 1328 1 0.19990 3 0
 1329 1 0.19990 3 0
 1330 3 0.46978 1 0 1.59924 2 0 0.38981 3 180
 1331 1 0.19990 3 0
 1332 1 0.19990 3 0
 1333 1 0.39981 1 0
 1334 1 0.99952 1 0
 1335 1 0.39981 1 0
 1336 3 1.59924 1 180 0.79962 2 0 0.69967 3 0
 1337 1 0.39981 3 0
 1338 3 1.59924 1 180 0.79962 2 0 0.69967 3 0
 1339 1 0.39981 3 0
 1340 1 0.19990 3 0
 1341 1 0.19990 3 0
 1342 1 0.19990 3 0
 1343 1 0.39981 1 0
 1344 1 0.59971 1 0
 1345 1 0.19990 3 0
 1346 1 0.04998 6 180
 1347 1 3.09852 2 180
 1348 1 0.39981 1 0
 1349 1 0.59971 1 0
 1350 1 0.39981 1 0
 1351 1 0.29986 1 0
 1352 1 0.29986 1 0
 1353 1 0.29986 1 0
 1354 1 0.29986 1 0
 1355 1 0.29986 1 0
 1356 1 0.29986 1 0
 1357 1 2.99857 2 180
 1358 1 2.99857 2 180
 1359 1 2.99857 2 180
 1360 1 0.18991 3 0
 1361 1 0.18991 3 0
 1362 1 0.18991 3 0
 1363 1 0.18991 3 0
 1364 1 0.18991 3 0
 1365 1 0.18991 3 0
 1366 1 13.99331 2 180
 1367 1 0.00000 3 0
 1368 1 0.00000 3 0
 1369 1 2.99857 2 180
 1370 1 2.99857 2 180
 1371 1 2.99857 2 180
 1372 1 13.99331 2 180
 1373 1 0.18991 3 0
 1374 1 0.18991 3 0
 1375 1 0.18991 3 0
 1376 1 0.18991 3 0
 1377 1 0.18991 3 0
 1378 1 0.18991 3 0
 1379 1 13.99331 2 180
 1380 1 0.99952 2 180
 1381 1 2.99857 2 180
 1382 1 0.00000 3 0
 1383 1 0.00000 3 0
 1384 1 2.49881 2 180
 1385 1 2.49881 2 180
 1386 1 2.49881 2 180
 1387 1 11.99427 2 180
 1388 1 0.18991 3 0
 1389 1 0.18991 3 0
 1390 1 0.18991 3 0
 1391 1 0.18991 3 0
 1392 1 0.18991 3 0
 1393 1 0.18991 3 0
 1394 1 0.18991 3 0
 1395 1 0.18991 3 0
 1396 1 11.99427 2 180
 1397 1 1.39933 2 180
 1398 1 2.99857 2 180
 1399 2 0.39981 1 180 0.59971 2 0
 1400 2 0.39981 1 0 0.59971 2 0
 1401 1 -0.29986 4 0
 1402 2 0.39981 1 0 0.59971 2 0
 1403 1 1.39933 1 0
 1404 1 1.39933 1 0
 1405 1 1.39933 1 0
 1406 1 0.00000 1 0
 1407 1 0.00000 1 0
 1408 1 0.00000 1 0
 1409 1 1.39933 1 0
 1410 1 0.00000 1 0
 1411 1 1.39933 1 0
 1412 1 0.00000 1 0
 1413 1 1.39933 1 0
 1414 1 1.39933 1 0
 1415 1 1.39933 1 0
 1416 1 0.00000 3 180
 1417 1 0.00000 1 0
 1418 1 0.00000 1 0
 1419 1 0.00000 1 0
 1420 1 0.00000 3 180
 1421 1 0.00000 1 0
 1422 3 0.20990 1 0 1.07948 2 180 0.29986 3 0
 1423 1 0.00000 3 180
 1424 1 0.00000 3 180
 1425 2 2.74869 2 180 0.29986 4 0
 1426 2 2.74869 2 180 0.29986 4 0
 1427 1 2.59876 2 180
 1428 1 2.59876 2 180
 1429 2 2.74869 2 180 0.29986 4 0
 1430 1 2.49881 2 180
 1431 1 2.49881 2 180
 1432 1 2.49881 2 180
 1433 1 2.49881 2 180
 1434 1 2.49881 2 180
 1435 1 2.49881 2 180
 1436 1 2.49881 2 180
 1437 1 0.96454 1 180
 1438 1 2.49881 2 180
 1439 1 2.49881 2 180
 1440 1 2.49881 2 180
 1441 1 2.49881 2 180
 1442 1 0.00000 1 0
 1443 1 0.00000 1 0
 1444 1 0.00000 1 0
 1445 1 0.00000 1 0
 1446 2 2.74869 2 180 0.29986 4 0
 1447 2 2.74869 2 180 0.29986 4 0
 1448 1 2.59876 2 180
 1449 1 2.59876 2 180
 1450 1 2.59876 2 180
 1451 2 2.74869 2 180 0.29986 4 0
 1452 1 2.49881 2 180
 1453 1 2.49881 2 180
 1454 1 2.49881 2 180
 1455 1 2.49881 2 180
 1456 1 2.49881 2 180
 1457 1 2.14577 2 180
 1458 1 0.02269 2 180
 1459 1 0.00000 1 0
 1460 1 1.39933 1 0
 1461 1 1.39933 1 0
 1462 1 1.39933 1 0
 1463 1 1.39933 1 0
 1464 1 0.00000 1 0
 1465 1 0.00000 1 0
 1466 1 0.00000 1 0
 1467 2 0.39981 1 180 0.59971 2 0
 1468 2 0.39981 1 0 0.59971 2 0
 1469 1 -0.29986 4 0
 1470 4 0.69967 1 180 1.19943 2 180 0.09995 3 180 0.19990 4 0
 1471 1 1.39933 1 0
 1472 1 1.39933 1 0
 1473 1 1.39933 1 0
 1474 1 0.00000 3 180
 1475 1 0.00000 3 180
 1476 1 0.00000 1 0
 1477 1 1.39933 1 0
 1478 1 1.39933 1 0
 1479 2 0.39981 1 180 0.59971 2 0
 1480 2 0.39981 1 0 0.59971 2 0
 1481 1 -0.29986 4 0
 1482 2 0.39981 1 0 0.59971 2 0
 1483 1 0.00000 3 180
 1484 1 0.00000 3 180
 1485 1 1.39933 2 180
 1486 2 0.39981 1 180 0.59971 2 0
 1487 2 0.39981 1 0 0.59971 2 0
 1488 1 -0.29986 4 0
 1489 2 0.96454 1 180 3.84816 2 180
 1490 2 0.96454 1 180 3.84816 2 180
 1491 1 3.09852 2 180
 1492 1 4.19799 2 180
 1493 1 0.15992 3 0
 1494 1 0.15992 3 0
 1495 1 0.15992 3 0
 1496 1 0.15992 3 0
 1497 1 0.15992 3 0
 1498 1 3.19847 2 180
 1499 1 3.19847 2 180
 1500 1 3.19847 2 180
 1501 1 0.15992 3 0
 1502 1 0.15992 3 0
 1503 1 0.15992 3 0
 1504 1 0.15992 3 0
 1505 1 3.09852 2 180
 1506 1 4.19799 2 180
 1507 1 0.19990 3 0
 1508 1 0.19990 3 0
 1509 2 0.49976 1 180 1.29938 3 180
 1510 1 0.01000 3 0
 1511 1 0.01000 3 0
 1512 1 1.99904 2 180
 1513 1 0.19990 3 0
 1514 1 0.19990 3 0
 1515 1 0.19990 3 0
 1516 1 0.19990 3 0
 1517 1 0.19990 3 0
 1518 1 0.01000 3 0
 1519 1 0.01000 3 0
 1520 1 0.30985 3 0
 1521 1 0.30985 3 0
 1522 1 0.30985 3 0
 1523 1 0.15792 3 0
 1524 1 0.15792 3 0
 1525 1 0.30985 3 0
 1526 1 0.30985 3 0
 1527 1 0.15792 3 0
 1528 1 0.15792 3 0
 1529 1 0.14993 3 0
 1530 1 0.14993 3 0
 1531 1 0.00000 3 0
 1532 1 0.00000 3 0
 1533 1 2.24892 2 180
 1534 1 1.39933 1 0
 1535 1 0.00000 1 0
 1536 1 0.00000 1 0
 1537 1 0.00000 1 0
 1538 1 0.00000 1 0
 1539 1 0.00000 1 0
 1540 1 0.99952 2 180
 1541 1 2.49881 2 180
 1542 1 2.99857 2 180
 1543 1 2.49881 2 180
 1544 1 0.15992 3 0
 1545 1 0.00000 1 0
 1546 1 0.00000 1 0
 1547 1 0.00000 1 0
 1548 1 1.39933 1 0
 1549 1 0.00000 1 0
 1550 1 0.00000 1 0
 1551 3 1.73917 1 0 0.14993 2 0 0.76963 3 180
 1552 3 1.73917 1 0 0.14993 2 0 0.76963 3 180
 1553 3 1.73917 1 0 0.14993 2 0 0.76963 3 180
 1554 3 2.03903 1 0 0.43979 2 0 0.12994 3 180
 1555 3 2.03903 1 0 0.43979 2 0 0.12994 3 180
 1556 3 2.03903 1 0 0.43979 2 0 0.12994 3 180
 1557 1 10.99474 2 180
 1558 1 10.99474 2 180
 1559 3 0.00000 1 0 0.00000 2 180 0.89957 3 0
 1560 3 0.00000 1 0 0.00000 2 180 0.89957 3 0
 1561 3 0.00000 1 0 0.00000 2 180 0.89957 3 0
 1562 3 1.08948 1 180 0.21989 2 180 2.31889 3 0
 1563 1 0.19990 3 0
 1564 1 0.19990 3 0
 1565 1 0.19990 3 0
 1566 3 1.08948 1 180 0.21989 2 180 2.31889 3 0
 1567 1 0.19990 3 0
 1568 1 0.19990 3 0
 1569 1 0.19990 3 0
 1570 3 1.08948 1 180 0.21989 2 180 2.31889 3 0
 1571 1 0.00000 3 0
 1572 1 0.00000 3 0
 1573 1 1.79914 1 0
 1574 1 0.00000 3 0
 1575 1 0.00000 3 0
 1576 1 0.01000 2 0
 1577 1 0.00600 1 0
 1578 1 0.00060 3 0
 1579 2 0.74025 1 180 0.64439 3 0
 1580 1 0.25618 3 0
 1581 3 0.43479 1 180 0.31075 2 180 0.19111 3 180
 1582 3 1.26859 1 0 2.39925 2 180 0.37312 3 0
 1583 3 1.68290 1 180 2.83145 2 180 0.00320 3 180
 1584 3 0.43479 1 180 0.31075 2 180 0.19111 3 180
 1585 3 1.26859 1 0 2.39925 2 180 0.37312 3 0
 1586 3 1.68290 1 180 2.83145 2 180 0.00320 3 180
 1587 2 0.60721 1 0 0.40721 3 0
 1588 2 0.60721 1 0 0.40721 3 0
 1589 1 6.39694 2 180
 1590 1 6.39694 2 180
 1591 1 4.01978 2 180
 1592 1 4.01978 2 180
 1593 1 4.01978 2 180
 1594 1 3.90273 2 180
 1595 1 3.89814 2 180
 1596 1 0.07636 2 180
 1597 1 0.49976 2 180
 1598 1 0.39981 2 180
 1599 1 1.19943 3 180
 1600 1 6.39694 2 180
 1601 1 6.39694 2 180
 1602 1 4.01978 2 180
 1603 1 4.01978 2 180
 1604 1 4.01978 2 180
 1605 1 3.90273 2 180
 1606 1 3.89814 2 180
 1607 1 0.07636 2 180
 1608 1 0.49976 2 180
 1609 1 0.39981 2 180
 1610 1 1.19943 3 180
 1611 1 4.39790 2 180
 1612 1 2.99857 2 180
 1613 1 3.49833 2 180
 1614 1 4.39790 2 180
 1615 1 2.99857 2 180
 1616 1 3.49833 2 180
 1617 1 0.18991 3 0
 1618 1 0.60191 3 180
 1619 1 0.60191 3 180
 1620 1 9.03168 2 180
 1621 1 0.18991 3 0
 1622 1 0.60191 3 180
 1623 1 0.60191 3 180
 1624 1 9.03168 2 180
 1625 1 6.59685 2 180
 1626 1 2.59876 2 180
 1627 1 2.99857 2 180
 1628 1 1.99904 2 180
 1629 1 0.03998 3 0
 1630 1 0.19990 3 0
 1631 1 0.19990 3 0
 1632 1 0.03998 3 0
 1633 1 0.03998 3 0
 1634 1 0.03998 3 0
 1635 1 0.19990 3 0
 1636 1 0.19990 3 0
 1637 1 0.15992 3 0
 1638 5 0.46888 1 0 0.01379 2 0 0.00150 3 180 0.00700 4 0 0.28586 6 0
 1639 1 1.54056 1 0
 1640 5 0.46888 1 0 0.01379 2 0 0.00150 3 180 0.00700 4 0 0.28586 6 0
 1641 1 0.03998 3 0
 1642 1 0.19990 3 0
 1643 1 0.15992 3 0
 1644 1 0.00000 1 0
 1645 1 2.99857 3 0
 1646 1 0.56973 3 0
 1647 1 0.00750 3 0
 1648 1 0.00000 3 0
 1649 1 0.83420 3 0
 1650 1 0.87698 1 0
 1651 2 0.47887 1 180 0.37262 3 0
 1652 1 0.33984 3 180
 1653 1 0.00000 3 0
 1654 1 15.49259 2 180
 1655 1 13.99331 2 180
 1656 1 9.99522 2 180
 1657 1 1.39933 2 180
 1658 1 1.39933 2 180
 1659 1 9.49546 2 180
 1660 1 2.29890 2 180
 1661 1 8.99570 2 180
 1662 2 0.11425 3 0 0.46148 4 0
 1663 1 0.00000 3 180
 1664 1 1.09947 1 0
 1665 2 0.24988 2 180 0.19491 3 0
 1666 1 0.00000 3 180
 1667 1 1.09947 1 0
 1668 1 0.84959 3 180
 1669 1 0.69967 1 0
 1670 1 0.00000 3 180
 1671 1 3.39838 2 180
 1672 1 3.39838 2 180
 1673 1 4.59780 2 180
 1674 1 0.19990 2 180
 1675 1 4.49785 2 180
 1676 1 3.39838 2 180
 1677 1 3.39838 2 180
 1678 1 4.59780 2 180
 1679 1 0.19990 2 180
 1680 1 4.49785 2 180
 1681 1 0.99952 3 180
 1682 1 0.99952 3 180
 1683 1 1.04950 3 180
 1684 1 1.06589 3 180
 1685 1 0.69077 3 180
 1686 1 0.00000 3 180
 1687 1 1.04950 3 180
 1688 1 1.04950 3 180
 1689 1 0.00000 3 180
 1690 1 0.49976 2 180
 1691 1 0.49976 2 180
 1692 1 0.49976 2 180
 1693 1 0.49976 2 180
 1694 1 0.49976 2 180
 1695 1 0.79962 2 180
 1696 2 0.24988 1 0 1.29938 2 180
 1697 2 0.24988 1 0 1.29938 2 180
 1698 1 0.19990 3 0
 1699 1 0.19990 3 0
 1700 1 0.19990 3 0
 1701 1 0.19491 3 0
 1702 1 0.59971 1 0
 1703 1 0.59971 1 0
 1704 1 0.00000 3 180
 1705 1 0.14993 3 0
 1706 1 0.14993 3 0
 1707 1 2.30890 3 180
 1708 1 0.75964 3 0
 1709 1 6.39694 2 180
 1710 1 6.39694 2 180
 1711 1 5.29747 2 180
 1712 1 1.19943 2 180
 1713 1 0.79962 2 180
 1714 1 6.39694 2 180
 1715 1 6.39694 2 180
 1716 1 5.29747 2 180
 1717 1 1.19943 2 180
 1718 1 0.79962 2 180
 1719 1 0.01769 3 180
 1720 2 1.16554 1 180 8.47495 2 180
 1721 2 1.16554 1 180 8.47495 2 180
 1722 1 0.01769 3 180
 1723 2 1.16554 1 180 8.47495 2 180
 1724 2 1.16554 1 180 8.47495 2 180
 1725 6 2.99297 1 180 2.63434 2 0 1.99235 3 180 0.86878 4 0 0.06617 5 180 1.41322 6 0
 1726 6 2.99297 1 180 2.63434 2 0 1.99235 3 180 0.86878 4 0 0.06617 5 180 1.41322 6 0
 1727 6 5.55325 1 0 5.10886 2 180 3.99639 3 0 1.09867 4 180 2.62365 5 180 1.99545 6 180
 1728 5 2.35887 1 180 2.07901 2 180 0.05997 3 0 1.06949 4 180 0.27987 6 0
 1729 5 0.01999 1 180 2.86863 2 180 0.11994 3 0 0.19990 4 180 0.19990 6 180
 1730 2 0.49167 2 180 0.20380 4 0
 1731 3 1.46880 1 180 1.64621 2 0 2.16646 3 180
 1732 3 0.64149 1 0 0.52985 2 180 3.71782 3 180
 1733 3 0.64149 1 0 0.52985 2 180 3.71782 3 180
 1734 1 1.70868 3 0
 1735 1 0.19301 2 180
 1736 1 1.18723 2 180
 1737 2 0.09995 1 0 2.12898 2 180
 1738 1 1.49928 2 180
 1739 1 1.49928 2 180
 1740 1 1.69919 2 180
 1741 1 2.39885 2 180
 1742 1 5.99713 2 180
 1743 1 3.99809 2 180
 1744 1 5.99713 2 180
 1745 1 0.00000 2 180
 1746 1 5.99713 2 180
 1747 1 10.19513 2 180
 1748 1 1.99904 2 180
 1749 1 9.99522 2 180
 1750 1 9.99522 2 180
 1751 1 9.99522 2 180
 1752 1 0.18951 3 0
 1753 3 1.01841 1 180 0.33564 2 0 0.30875 3 0
 1754 3 0.05427 1 0 0.77733 2 180 1.14905 3 180
 1755 1 0.06157 3 180
 1756 3 2.23083 1 0 0.35203 2 0 2.03003 3 0
 1757 1 0.19990 3 0
 1758 1 0.19491 3 0
 1759 1 0.19491 3 0
 1760 1 0.01000 3 0
 1761 1 0.15992 3 0
 1762 2 1.23071 1 0 0.91456 3 0
 1763 1 0.19990 3 0
 1764 3 0.63510 1 0 2.09600 2 0 1.71938 3 0
 1765 3 0.63510 1 0 2.09600 2 0 1.71938 3 0
 1766 2 1.09058 2 180 0.63470 3 180
 1767 1 0.02589 3 0
 1768 1 0.09995 3 0
 1769 1 0.01000 3 0
 1770 1 0.79962 3 0
 1771 1 0.79962 3 0
 1772 1 0.19491 3 0
 1773 1 0.15992 3 0
 1774 4 2.49881 1 180 0.39981 2 0 0.79962 3 180 0.19990 4 180
 1775 1 3.39838 1 180
 1776 1 0.19491 3 0
 1777 3 0.77143 1 0 1.02011 2 0 0.61481 3 0
 1778 1 0.24278 2 180
 1779 3 1.19333 1 180 0.24708 2 180 0.50886 3 180
 1780 1 0.04018 3 180
 1781 1 1.29938 3 0
 1782 1 0.19990 3 0
 1783 1 0.32984 3 0
 1784 1 2.10140 3 180
 1785 1 0.21550 3 0
 1786 1 0.29636 3 180
 1787 1 0.95244 3 0
 1788 1 2.03563 3 0
 1789 2 4.78611 1 180 2.42344 3 180
 1790 1 0.39001 3 0
 1791 1 0.01129 3 180
 1792 1 0.03168 3 0
 1793 1 0.01129 3 180
 1794 1 4.50565 2 180
 1795 1 4.65617 2 180
 1796 1 4.65617 2 180
 1797 1 5.38563 2 180
 1798 1 6.34787 2 180
 1799 1 0.00500 2 180
 1800 1 0.00110 2 180
 1801 1 4.50565 2 180
 1802 1 4.65617 2 180
 1803 1 4.65617 2 180
 1804 1 5.38563 2 180
 1805 1 6.34787 2 180
 1806 1 0.00500 2 180
 1807 1 0.00110 2 180
 1808 1 13.99331 2 180
 1809 1 13.99331 2 180
 1810 1 9.99522 2 180
 1811 1 13.99331 2 180
 1812 1 0.32564 2 180
 1813 1 0.01549 2 180
 1814 1 6.99666 2 180
 1815 1 2.69871 2 180
 1816 1 2.99857 2 180
 1817 1 2.99857 2 180
 1818 1 0.18991 3 0
 1819 1 0.18991 3 0
 1820 1 0.18991 3 0
 1821 1 0.18991 3 0
 1822 1 0.18991 3 0
 1823 1 0.18991 3 0
 1824 1 0.18991 3 0
 1825 1 9.49546 2 180
 1826 1 3.89814 2 180
 1827 1 1.99904 2 180
 1828 1 7.99618 2 180
 1829 1 0.18991 3 0
 1830 1 0.18991 3 0
 1831 1 3.49833 3 180
 1832 1 3.49833 3 180
 1833 1 2.79866 3 180
 1834 1 1.39933 3 0
 1835 2 0.88957 2 180 0.09995 4 0
 1836 4 0.36363 1 180 0.01489 2 0 0.28396 3 180 0.02949 6 0
 1837 4 0.36363 1 180 0.01489 2 0 0.28396 3 180 0.02949 6 0
 1838 4 0.36363 1 180 0.01489 2 0 0.28396 3 180 0.02949 6 0
 1839 4 0.00450 1 180 0.00850 2 0 1.49878 3 180 0.09835 6 0
 1840 1 0.18991 3 0
 1841 4 0.36363 1 180 0.01489 2 0 0.28396 3 180 0.02949 6 0
 1842 4 0.36363 1 180 0.01489 2 0 0.28396 3 180 0.02949 6 0
 1843 4 0.00450 1 180 0.00850 2 0 1.49878 3 180 0.09835 6 0
 1844 1 0.18991 3 0
 1845 1 0.18991 3 0
 1846 1 9.99522 2 180
 1847 1 12.54520 2 180
 1848 1 11.99427 2 180
 1849 1 11.99427 2 180
 1850 1 13.99331 2 180
 1851 1 13.99331 2 180
 1852 1 5.99713 2 180
 1853 1 10.99474 2 180
 1854 1 10.99474 2 180
 1855 1 10.99474 2 180
 1856 1 1.49928 2 180
 1857 1 9.99522 2 180
 1858 1 1.73177 2 180
 1859 1 0.99952 2 180
 1860 1 10.99474 2 180
 1861 1 3.99809 2 180
 1862 1 1.19943 3 0
 1863 1 8.49594 2 180
 1864 1 8.99570 2 180
 1865 1 8.49594 2 180
 1866 1 2.99857 2 180
 1867 1 9.99522 2 180
 1868 1 5.29747 2 180
 1869 1 6.99666 2 180
 1870 1 3.99809 2 180
 1871 1 0.00000 2 180
 1872 1 0.19990 2 180
 1873 1 0.79962 2 180
 1874 1 1.99904 2 180
 1875 1 6.99666 2 180
 1876 1 2.99857 2 180
 1877 1 0.99952 3 0
 1878 1 0.29986 3 0
 1879 1 15.29269 2 180
 1880 1 13.99331 2 180
 1881 1 13.99331 2 180
 1882 1 8.49594 2 180
 1883 1 8.49594 2 180
 1884 1 2.49881 2 180
 1885 1 2.49881 2 180
 1886 1 10.91068 2 180
 1887 1 2.49881 2 180
 1888 1 2.49881 2 180
 1889 1 8.49594 2 180
 1890 3 2.03903 1 0 0.43979 2 0 0.12994 3 180
 1891 1 0.00000 3 0
 1892 1 4.99761 2 180
 1893 1 3.99809 2 180
 1894 1 3.99809 2 180
 1895 1 0.39981 2 180
 1896 1 3.99809 3 0
 1897 1 1.99904 2 180
 1898 1 0.29986 2 180
 1899 1 1.49928 2 180
 1900 1 0.99952 2 180
 1901 1 0.09995 2 180
 1902 1 0.79962 2 180
 1903 1 1.77915 2 180
 1904 4 0.02289 1 180 1.67510 2 180 0.10115 3 0 0.11904 4 0
 1905 4 0.92796 1 0 2.20055 2 180 0.02599 3 180 0.40691 4 0
 1906 1 0.00000 1 0
 1907 1 0.41540 2 180
 1908 1 0.03958 2 180
 1909 1 5.58193 2 180
 1910 2 4.18130 1 180 2.35068 2 180
 1911 1 2.66323 2 180
 1912 2 4.18130 1 180 2.35068 2 180
 1913 1 0.49976 2 180
 1914 1 0.09995 2 180
 1915 1 0.49976 2 180
 1916 1 0.09995 2 180
 1917 3 0.79962 1 180 2.99857 2 180 1.09947 3 180
 1918 3 0.64599 1 180 3.41037 2 180 0.00010 3 180
 1919 1 1.99904 2 0
 1920 3 1.49928 1 180 0.99952 2 180 1.49928 3 0
 1921 3 0.49976 1 180 1.99904 2 0 0.99952 3 0
 1922 3 0.49976 1 180 1.99904 2 0 0.99952 3 0
 1923 3 0.49976 1 180 1.99904 2 0 0.99952 3 0
 1924 3 0.76563 1 180 3.39947 2 0 0.99203 3 0
 1925 5 0.89957 1 0 2.09900 2 180 0.21989 3 0 0.24988 5 180 0.09995 6 0
 1926 2 1.09947 1 180 0.69967 2 180
 1927 4 0.47777 1 0 2.21174 2 180 0.93275 3 0 0.82930 4 0
 1928 1 0.99952 2 180
 1929 4 0.69967 1 0 1.19943 2 180 0.09995 3 0 0.14993 4 0
 1930 4 0.69967 1 180 1.19943 2 180 0.09995 3 180 0.19990 4 0
 1931 1 1.29938 2 180
 1932 1 0.99952 2 180
 1933 1 3.19847 2 180
 1934 1 0.20100 2 180
 1935 1 1.01042 2 180
 1936 1 0.01249 2 180
 1937 1 1.39933 2 180
 1938 1 0.75964 2 180
 1939 3 1.99015 1 180 1.32527 2 180 0.10455 4 0
 1940 2 0.74964 2 180 0.18991 4 0
 1941 2 0.49976 2 0 0.29986 3 0
 1942 2 0.49976 2 0 0.39981 3 0
 1943 2 0.49976 2 0 0.29986 3 0
 1944 2 0.49976 2 0 0.29986 3 0
 1945 3 1.89909 1 180 0.39981 2 180 0.59971 3 180
 1946 1 0.69967 3 0
 1947 1 0.02999 3 0
 1948 1 0.02999 3 0
 1949 1 0.29986 3 180
 1950 2 0.55973 1 180 6.99666 2 180
 1951 2 0.55973 1 180 6.99666 2 180
 1952 2 0.55973 1 180 6.99666 2 180
 1953 2 0.55973 1 180 6.99666 2 180
 1954 2 0.55973 1 180 6.99666 2 180
 1955 2 0.62400 1 180 6.93988 2 180
 1956 2 0.55973 1 180 6.99666 2 180
 1957 2 0.55973 1 180 6.99666 2 180
 1958 1 5.19752 2 180
 1959 1 4.99761 2 180
 1960 1 1.08418 2 180
 1961 1 1.39933 2 180
 1962 1 0.29986 3 0
 1963 1 0.29986 3 0
 1964 1 0.29986 3 180
 1965 1 11.91291 2 180
 1966 1 6.99666 2 180
 1967 1 4.99761 2 180
 1968 1 6.49689 2 180
 1969 2 1.59924 1 0 2.49881 2 180
 1970 2 1.59924 1 0 2.49881 2 180
 1971 2 1.59924 1 0 2.49881 2 180
 1972 1 2.49881 2 180
 1973 1 2.49881 2 180
 1974 4 0.97403 1 180 2.69381 2 180 0.07946 3 180 0.18531 6 180
 1975 1 0.00030 2 180
 1976 1 0.02409 2 180
 1977 1 0.03688 2 180
 1978 1 1.58454 2 180
 1979 1 0.09995 3 0
 1980 1 0.00000 2 180
 1981 1 0.00000 2 180
 1982 1 0.00000 2 180
 1983 1 0.00330 2 180
 1984 1 1.98655 2 180
 1985 1 0.37372 2 180
 1986 1 0.00570 2 180
 1987 1 1.22382 2 180
 1988 1 0.90607 2 180
 1989 1 0.07337 2 180
 1990 1 0.26867 2 180
 1991 1 0.06287 2 180
 1992 1 0.06287 2 180
 1993 1 3.09852 2 180
 1994 1 2.70411 2 180
 1995 1 2.70411 2 180
 1996 1 2.46302 2 180
 1997 1 2.39885 2 180
 1998 1 0.19990 3 0
 1999 1 0.18991 3 0
 2000 1 0.15992 3 0
 2001 1 0.19990 3 0
 2002 1 0.18991 3 0
 2003 3 0.13993 1 180 0.16992 2 0 0.04998 3 180
 2004 3 0.30765 1 0 0.35363 2 0 0.33424 3 180
 2005 1 0.18991 3 0
 2006 1 0.15992 3 0
 2007 3 1.29938 1 0 0.69967 2 0 0.13993 3 0
 2008 1 0.69967 3 0
 2009 3 1.27939 1 180 0.93955 2 180 1.56925 3 180
 2010 3 1.27939 1 180 0.93955 2 180 1.56925 3 180
 2011 2 3.39838 1 180 1.29938 2 180
 2012 1 2.49881 2 180
 2013 1 0.09995 2 180
 2014 1 0.19990 2 180
 2015 1 0.79962 2 180
 2016 1 1.50758 2 180
 2017 1 0.99952 2 180
 2018 1 0.39981 2 180
 2019 1 0.19990 3 0
 2020 1 0.09995 2 180
 2021 1 0.19990 2 180
 2022 1 0.79962 2 180
 2023 1 1.50758 2 180
 2024 1 0.99952 2 180
 2025 1 0.39981 2 180
 2026 1 0.19990 3 0
 2027 1 0.09995 2 180
 2028 1 0.99952 2 180
 2029 1 0.09995 2 180
 2030 1 0.09995 2 180
 2031 1 0.09995 2 180
 2032 1 0.99952 2 180
 2033 1 0.09995 2 180
 2034 1 0.09995 2 180
 2035 3 1.49928 1 180 0.99952 2 180 1.49928 3 0
 2036 3 0.49976 1 180 1.99904 2 0 0.99952 3 0
 2037 3 0.39981 1 180 0.39981 2 180 1.29938 3 0
 2038 5 0.89957 1 0 2.09900 2 180 0.21989 3 0 0.24988 5 180 0.09995 6 0
 2039 2 1.09947 1 180 0.69967 2 180
 2040 4 0.49976 1 0 2.19895 2 180 1.09947 3 0 0.59971 4 0
 2041 1 0.99952 2 180
 2042 1 0.99952 2 180
 2043 1 1.29938 2 180
 2044 1 0.99952 2 180
 2045 1 3.19847 2 180
 2046 1 1.39933 2 180
 2047 1 1.39933 2 180
 2048 3 0.05028 1 180 0.77143 2 180 0.43429 4 0
 2049 1 0.40171 2 180
 2050 3 1.99015 1 180 1.32527 2 180 0.10455 4 0
 2051 2 0.74964 2 180 0.18991 4 0
 2052 2 0.49976 2 0 0.29986 3 0
 2053 1 0.02999 3 0
 2054 1 0.29986 3 0
 2055 1 1.29938 2 180
 2056 1 0.99952 2 180
 2057 1 3.19847 2 180
 2058 1 1.39933 2 180
 2059 1 1.39933 2 180
 2060 3 0.05028 1 180 0.77143 2 180 0.43429 4 0
 2061 1 0.40171 2 180
 2062 3 1.99015 1 180 1.32527 2 180 0.10455 4 0
 2063 2 0.74964 2 180 0.18991 4 0
 2064 2 0.49976 2 0 0.29986 3 0
 2065 1 0.02999 3 0
 2066 1 0.29986 3 0
 2067 1 4.99761 2 180
 2068 1 3.99809 2 180
 2069 1 3.99809 2 180
 2070 1 0.39981 2 180
 2071 1 3.99809 3 0
 2072 1 1.99904 2 180
 2073 1 0.29986 2 180
 2074 1 1.49928 2 180
 2075 1 0.99952 2 180
 2076 1 0.09995 2 180
 2077 1 0.79962 2 180
 2078 1 1.77915 2 180
 2079 4 0.02289 1 180 1.67510 2 180 0.10115 3 0 0.11904 4 0
 2080 4 0.92796 1 0 2.20055 2 180 0.02599 3 180 0.40691 4 0
 2081 1 0.41540 2 180
 2082 1 0.03958 2 180
 2083 1 5.58193 2 180
 2084 2 4.18130 1 180 2.35068 2 180
 2085 1 2.66323 2 180
 2086 1 0.49976 2 180
 2087 1 0.09995 2 180
 2088 1 0.49976 2 180
 2089 1 0.09995 2 180
 2090 3 0.79962 1 180 2.99857 2 180 1.09947 3 180
 2091 3 0.64599 1 180 3.41037 2 180 0.00010 3 180
 2092 1 1.99904 2 0
 2093 2 0.55973 1 180 6.99666 2 180
 2094 2 0.55973 1 180 6.99666 2 180
 2095 2 0.55973 1 180 6.99666 2 180
 2096 2 0.55973 1 180 6.99666 2 180
 2097 2 0.55973 1 180 6.99666 2 180
 2098 2 0.62400 1 180 6.93988 2 180
 2099 2 0.55973 1 180 6.99666 2 180
 2100 2 0.55973 1 180 6.99666 2 180
 2101 1 5.19752 2 180
 2102 3 0.49976 1 180 1.99904 2 0 0.99952 3 0
 2103 1 1.75026 2 180
 2104 1 4.99761 2 180
 2105 1 1.08418 2 180
 2106 1 1.39933 2 180
 2107 1 0.29986 3 0
 2108 1 0.29986 3 0
 2109 1 0.29986 3 180
 2110 1 11.91291 2 180
 2111 1 6.99666 2 180
 2112 1 4.99761 2 180
 2113 4 0.69967 1 0 1.19943 2 180 0.09995 3 0 0.14993 4 0
 2114 4 0.69967 1 180 1.19943 2 180 0.09995 3 180 0.19990 4 0
 2115 1 1.29938 2 180
 2116 1 0.99952 2 180
 2117 1 3.19847 2 180
 2118 1 0.20100 2 180
 2119 1 1.01042 2 180
 2120 1 0.01249 2 180
 2121 1 1.39933 2 180
 2122 1 0.75964 2 180
 2123 3 1.99015 1 180 1.32527 2 180 0.10455 4 0
 2124 2 0.74964 2 180 0.18991 4 0
 2125 2 0.49976 2 0 0.29986 3 0
 2126 2 0.49976 2 0 0.39981 3 0
 2127 2 0.49976 2 0 0.29986 3 0
 2128 2 0.49976 2 0 0.29986 3 0
 2129 3 1.89909 1 180 0.39981 2 180 0.59971 3 180
 2130 1 0.69967 3 0
 2131 1 0.02999 3 0
 2132 1 0.02999 3 0
 2133 1 0.29986 3 180
 2134 1 6.49689 2 180
 2135 2 1.59924 1 0 2.49881 2 180
 2136 2 1.59924 1 0 2.49881 2 180
 2137 2 1.59924 1 0 2.49881 2 180
 2138 1 2.49881 2 180
 2139 1 2.49881 2 180
 2140 4 0.97403 1 180 2.69381 2 180 0.07946 3 180 0.18531 6 180
 2141 1 0.00030 2 180
 2142 1 0.02409 2 180
 2143 1 0.03688 2 180
 2144 1 1.58454 2 180
 2145 1 0.09995 3 0
 2146 1 0.00000 2 180
 2147 1 0.00000 2 180
 2148 1 0.00000 2 180
 2149 1 0.00330 2 180
 2150 1 1.98655 2 180
 2151 1 0.37372 2 180
 2152 1 0.00570 2 180
 2153 1 1.22382 2 180
 2154 1 0.90607 2 180
 2155 1 0.07337 2 180
 2156 1 0.26867 2 180
 2157 1 0.06287 2 180
 2158 1 0.06287 2 180
 2159 1 3.09852 2 180
 2160 1 2.70411 2 180
 2161 1 2.70411 2 180
 2162 1 2.46302 2 180
 2163 1 2.39885 2 180
 2164 1 0.19990 3 0
 2165 1 0.18991 3 0
 2166 1 0.15992 3 0
 2167 1 0.19990 3 0
 2168 1 0.18991 3 0
 2169 3 0.13993 1 180 0.16992 2 0 0.04998 3 180
 2170 3 0.30765 1 0 0.35363 2 0 0.33424 3 180
 2171 1 0.18991 3 0
 2172 1 0.15992 3 0
 2173 3 1.29938 1 0 0.69967 2 0 0.13993 3 0
 2174 1 0.69967 3 0
 2175 2 3.39838 1 180 1.29938 2 180
 2176 1 2.49881 2 180
 2177 1 4.39790 2 180
 2178 1 1.19943 2 180
 2179 1 1.19943 2 180
 2180 1 4.39790 2 180
 2181 1 1.19943 2 180
 2182 1 1.19943 2 180
 2183 1 6.89670 2 180
 2184 1 3.99809 2 180
 2185 1 8.49594 2 180
 2186 1 4.87917 2 180
 2187 1 8.49594 2 180
 2188 1 2.79866 2 180
 2189 1 2.79866 2 180
 2190 1 0.24988 2 180
 2191 3 0.05068 1 180 0.92156 2 180 0.00280 3 0
 2192 1 0.19990 3 0
 2193 3 0.35983 1 180 0.04998 2 0 0.18991 3 180
 2194 2 0.08996 2 180 0.56973 3 0
 2195 2 0.08996 2 180 0.56973 3 0
 2196 1 0.24988 2 180
 2197 2 0.53974 1 0 0.45978 3 0
 2198 2 0.53974 1 0 0.45978 3 0
 2199 1 0.19990 3 0
 2200 3 0.69967 1 180 0.59971 2 0 0.14993 3 0
 2201 2 0.08996 2 180 0.56973 3 0
 2202 1 0.39981 3 0
 2203 1 0.19990 3 0
 2204 1 5.99713 2 180
 2205 1 0.99952 2 180
 2206 1 13.49355 2 180
 2207 1 3.09852 2 180
 2208 1 4.99761 2 180
 2209 1 3.09852 2 180
 2210 1 3.09852 2 180
 2211 1 3.09852 2 180
 2212 1 2.99857 2 180
 2213 1 3.09852 2 180
 2214 1 2.99857 2 180
 2215 1 2.39885 2 180
 2216 1 3.09852 2 180
 2217 1 4.49785 2 180
 2218 1 2.19895 2 180
 2219 1 1.34935 2 180
 2220 1 0.98953 2 180
 2221 1 0.19990 2 180
 2222 1 5.49737 2 180
 2223 1 3.59828 2 180
 2224 1 0.00000 2 180
 2225 1 0.99952 2 180
 2226 1 6.84673 2 180
 2227 1 1.79914 2 180
 2228 1 5.49737 2 180
 2229 2 2.39885 2 180 0.69967 3 180
 2230 1 0.59971 2 180
 2231 1 0.00000 2 180
 2232 1 0.00000 2 180
 2233 1 1.79914 2 180
 2234 3 0.99952 1 0 2.19895 2 180 0.19990 3 0
 2235 3 0.99952 1 0 2.19895 2 180 0.19990 3 0
 2236 1 2.19895 2 180
 2237 2 1.79914 1 0 1.49928 2 180
 2238 3 1.49928 1 0 1.89909 2 180 0.71966 3 0
 2239 1 0.49976 2 180
 2240 1 0.49976 2 180
 2241 2 2.84864 2 180 0.89957 4 0
 2242 1 1.99904 2 180
 2243 2 0.19990 1 0 1.39933 2 180
 2244 1 2.79866 2 180
 2245 1 1.49928 2 180
 2246 1 1.99904 3 180
 2247 1 1.99904 3 180
 2248 1 0.99952 3 180
 2249 1 1.99904 3 180
 2250 1 1.02951 3 180
 2251 1 1.02951 3 180
 2252 1 1.02951 3 180
 2253 1 0.49976 3 0
 2254 1 3.99809 2 180
 2255 1 5.99713 2 180
 2256 1 1.49928 2 180
 2257 1 5.99713 2 180
 2258 1 10.99474 2 180
 2259 1 10.99474 2 180
 2260 1 1.19943 2 180
 2261 1 6.49689 2 180
 2262 1 0.38691 2 180
 2263 1 0.84959 2 180
 2264 1 10.99474 2 180
 2265 1 2.99857 2 180
 2266 1 5.49737 2 180
 2267 1 1.59924 2 180
 2268 1 5.49737 2 180
 2269 1 5.99713 2 180
 2270 1 0.99952 2 180
 2271 1 0.00000 2 180
 2272 1 0.31985 2 180
 2273 1 0.44978 2 180
 2274 1 0.19990 2 180
 2275 1 1.95906 3 0
 2276 1 0.00000 3 0
 2277 1 8.49594 2 180
 2278 1 0.29986 2 180
 2279 1 8.49594 2 180
 2280 1 2.99857 2 180
 2281 1 3.97710 3 0
 2282 1 4.61849 3 0
 2283 1 1.34236 3 180
 2284 1 2.47882 3 0
 2285 1 0.00000 3 0
 2286 1 2.49511 2 180
 2287 4 0.00030 1 0 3.25145 2 0 1.51298 3 0 0.39131 4 0
 2288 1 0.00000 3 0
 2289 2 1.09947 1 180 0.19990 3 0
 2290 1 0.24988 2 180
 2291 1 0.00000 3 0
 2292 2 1.09947 1 180 0.19990 3 0
 2293 1 1.09947 1 180
 2294 1 0.39981 1 180
 2295 1 0.09995 3 0
 2296 1 2.99857 2 180
 2297 1 3.99809 2 180
 2298 1 3.99809 2 180
 2299 1 3.99809 2 180
 2300 3 0.05028 1 180 0.77143 2 180 0.43429 4 0
 2301 1 0.40171 2 180
 2302 2 1.97066 2 180 0.01659 4 180
 2303 1 0.26647 3 180
 2304 1 1.99904 2 180
 2305 1 0.01999 2 180
 2306 1 0.00030 2 180
 2307 1 1.49928 2 180
 2308 2 1.59924 1 0 2.49881 2 180
 2309 1 1.69919 2 180
 2310 1 2.99857 2 180
 2311 1 3.99809 2 180
 2312 1 3.99809 2 180
 2313 1 3.99809 2 180
 2314 3 0.05028 1 180 0.77143 2 180 0.43429 4 0
 2315 1 0.40171 2 180
 2316 2 1.97066 2 180 0.01659 4 180
 2317 1 0.26647 3 180
 2318 1 1.99904 2 180
 2319 1 0.01999 2 180
 2320 1 0.00030 2 180
 2321 1 1.49928 2 180
 2322 2 1.59924 1 0 2.49881 2 180
 2323 1 1.69919 2 180
 2324 2 0.44978 1 180 8.49594 2 180
 2325 1 9.99522 2 180
 2326 1 0.99952 2 180
 2327 1 0.29986 3 180
 2328 1 0.02999 3 0
 2329 1 0.15992 3 0
 2330 1 9.99522 2 180
 2331 1 9.99522 2 180
 2332 5 0.89957 1 0 2.09900 2 180 0.21989 3 0 0.24988 5 180 0.09995 6 0
 2333 5 0.89957 1 0 2.09900 2 180 0.21989 3 0 0.24988 5 180 0.09995 6 0
 2334 1 0.99952 2 180
 2335 1 9.99522 2 180
 2336 1 9.99522 2 180
 2337 1 2.39885 2 180
 2338 1 0.19990 3 0
 2339 1 0.19990 3 0
 2340 1 0.19990 3 0
 2341 1 0.19491 3 0
 2342 1 0.19990 3 0
 2343 1 0.19990 3 0
 2344 1 0.19491 3 0
 2345 1 0.19990 3 0
 2346 3 1.32936 1 0 0.17991 2 0 0.45978 3 0
 2347 1 0.19990 3 0
 2348 1 0.19491 3 0
 2349 1 0.19491 3 0
 2350 1 0.15992 3 0
 2351 3 0.59971 1 180 0.64969 2 0 0.04998 3 0
 2352 2 0.17991 1 180 0.56973 3 0
 2353 3 1.59924 1 180 0.23989 2 180 0.02999 3 180
 2354 3 0.43979 1 0 0.01999 2 180 0.72965 3 180
 2355 1 0.19990 3 0
 2356 1 0.09995 3 0
 2357 2 0.94955 2 0 0.49976 3 0
 2358 1 0.00000 1 0
 2359 1 1.39933 1 0
 2360 2 2.74869 2 180 0.29986 4 0
 2361 2 0.09386 1 180 4.40499 2 180
 2362 1 0.99952 2 180
 2363 3 2.94259 1 0 1.34636 2 180 2.35627 3 180
 2364 3 2.94259 1 0 1.34636 2 180 2.35627 3 180
 2365 2 2.74869 2 180 0.29986 4 0
 2366 2 2.74869 2 180 0.29986 4 0
 2367 1 0.73965 2 180
 2368 2 1.59924 1 0 2.49881 2 180
 2369 2 1.59924 1 0 2.49881 2 180
 2370 2 1.59924 1 0 2.49881 2 180
 2371 1 2.49881 2 180
 2372 1 2.49881 2 180
 2373 2 1.59924 1 0 2.49881 2 180
 2374 1 2.49881 2 180
 2375 2 1.59924 1 0 2.49881 2 180
 2376 2 1.59924 1 0 2.49881 2 180
 2377 2 2.74869 2 180 0.29986 4 0
 2378 2 2.74869 2 180 0.29986 4 0
 2379 1 2.04902 2 180
 2380 1 2.04902 2 180
 2381 1 2.04902 2 180
 2382 1 2.04902 2 180
 2383 1 1.58424 2 180
 2384 1 2.99857 2 180
 2385 1 0.99952 2 180
 2386 1 2.49881 2 180
 2387 1 2.99857 2 180
 2388 1 0.08926 2 180
 2389 1 0.08926 2 180
 2390 1 4.91545 2 180
 2391 1 3.29343 2 180
 2392 1 0.09396 2 180
 2393 1 0.00410 2 180
 2394 1 0.04828 2 180
 2395 1 2.39885 2 180
 2396 1 2.39885 2 180
 2397 1 2.39885 2 180
 2398 1 2.39885 2 180
 2399 1 3.99809 2 180
 2400 1 3.99809 2 180
 2401 1 5.59732 2 180
 2402 1 0.00000 2 180
 2403 1 0.19990 3 0
 2404 1 0.19990 3 0
 2405 1 0.19491 3 0
 2406 1 0.19990 3 0
 2407 1 0.19990 3 180
 2408 1 0.19491 3 0
 2409 1 0.15992 3 0
 2410 3 1.12946 1 0 0.13993 2 0 0.23989 3 0
 2411 1 0.19990 3 0
 2412 1 0.49976 4 180
 2413 1 0.49976 4 180
 2414 1 0.13993 3 0
 2415 1 0.19491 3 0
 2416 1 0.19990 3 0
 2417 1 0.34983 3 0
 2418 1 0.19990 3 0
 2419 1 0.19990 3 0
 2420 1 0.19990 3 0
 2421 1 0.19990 3 0
 2422 1 0.19990 3 0
 2423 1 0.19990 3 180
 2424 1 0.19990 3 180
 2425 1 0.19491 3 0
 2426 1 0.19990 3 0
 2427 1 0.14993 3 0
 2428 1 0.14993 3 0
 2429 1 0.14993 3 0
 2430 1 1.79914 1 0
 2431 1 1.79914 1 0
 2432 1 0.00000 1 0
 2433 2 0.49976 1 180 0.39981 3 0
 2434 2 0.39981 1 0 0.48977 3 0
 2435 2 1.09947 1 180 0.49976 3 0
 2436 3 1.32936 1 0 0.17991 2 0 0.45978 3 0
 2437 1 0.19990 3 0
 2438 1 0.19990 3 0
 2439 1 0.09995 3 0
 2440 1 0.19491 3 0
 2441 2 0.49976 3 0 0.49976 6 180
 2442 1 0.19491 3 0
 2443 1 0.14993 3 0
 2444 1 0.19990 3 0
 2445 1 0.19491 3 0
 2446 2 0.96134 1 180 0.11984 3 180
 2447 1 0.19491 3 0
 2448 1 0.19491 3 0
 2449 1 0.99952 3 0
 2450 1 0.99952 3 0
 2451 1 0.19491 3 0
 2452 1 0.19491 3 0
 2453 1 0.15992 3 0
 2454 3 0.65918 1 0 0.04978 2 0 1.61373 3 180
 2455 1 1.68919 1 0
 2456 1 1.73917 1 0
 2457 1 0.00000 3 0
 2458 2 1.41272 1 0 1.28059 2 0
 2459 1 0.09995 3 180
 2460 1 0.09995 1 0
 2461 1 1.79914 1 0
 2462 1 0.00000 1 0
 2463 3 0.43979 1 180 0.02999 2 0 0.01000 3 0
 2464 2 0.05997 2 0 0.46978 3 0
 2465 3 3.08662 1 180 0.37022 2 180 0.30216 3 0
 2466 2 0.22599 1 180 1.54776 2 0
 2467 1 0.00000 3 0
 2468 3 0.59971 1 180 0.64969 2 0 0.04998 3 0
 2469 3 0.59971 1 180 0.64969 2 0 0.04998 3 0
 2470 3 1.12946 1 0 0.13993 2 0 0.23989 3 0
 2471 3 0.23989 1 0 0.14993 2 0 0.26987 3 0
 2472 1 0.00000 1 0
 2473 1 0.00000 1 0
 2474 1 0.19990 3 0
 2475 1 0.19990 3 0
 2476 1 0.00000 6 180
 2477 1 0.00000 6 180
 2478 1 0.09995 3 0
 2479 1 0.09995 3 0
 2480 1 0.09995 3 0
 2481 3 0.39981 1 0 0.24988 2 0 0.59971 3 0
 2482 1 0.09995 3 0
 2483 1 0.09995 3 0
 2484 1 0.18991 3 0
 2485 1 0.18991 3 0
 2486 1 0.15792 3 0
 2487 1 0.04998 3 0
 2488 1 0.15792 3 0
 2489 1 0.15792 3 0
 2490 1 0.14993 3 0
 2491 1 3.99809 3 0
 2492 1 0.15792 3 0
 2493 1 0.14993 3 0
 2494 1 0.14993 3 0
 2495 1 0.14993 3 0
 2496 3 0.39981 1 0 1.14945 2 0 0.11994 3 0
 2497 2 1.18993 2 0 0.02509 3 180
 2498 1 0.09995 3 0
 2499 2 0.94955 2 0 0.49976 3 0
 2500 1 0.09995 3 0
 2501 1 0.00000 3 0
 2502 1 0.00000 1 0
 2503 1 1.39933 1 0
 2504 2 2.74869 2 180 0.29986 4 0
 2505 1 0.00000 1 0
 2506 1 1.39933 1 0
 2507 1 6.51798 2 180
 2508 2 2.74869 2 180 0.29986 4 0
 2509 2 2.74869 2 180 0.29986 4 0
 2510 2 1.59924 1 0 2.49881 2 180
 2511 2 1.59924 1 0 2.49881 2 180
 2512 2 1.59924 1 0 2.49881 2 180
 2513 1 2.49881 2 180
 2514 1 2.49881 2 180
 2515 1 6.60824 2 180
 2516 1 2.18875 2 180
 2517 1 0.25958 2 180
 2518 1 0.34983 3 0
 2519 1 0.19990 3 0
 2520 1 0.19491 3 0
 2521 1 0.19990 3 0
 2522 2 0.49976 1 0 0.69967 2 0
 2523 2 0.49976 3 0 0.49976 6 180
 2524 1 0.19491 3 0
 2525 2 0.49976 3 0 0.49976 6 180
 2526 1 0.49976 1 180
 2527 1 0.19491 3 0
 2528 1 0.19491 3 0
 2529 1 0.19990 3 0
 2530 1 1.79914 1 0
 2531 1 0.00000 1 0
 2532 3 1.12946 1 0 0.13993 2 0 0.23989 3 0
 2533 3 0.23989 1 0 0.14993 2 0 0.26987 3 0
 2534 1 0.10195 3 0
 2535 1 0.01829 3 0
 2536 1 0.03748 3 0
 2537 2 0.44978 1 180 8.49594 2 180
 2538 2 0.44978 1 180 8.49594 2 180
 2539 1 0.99952 2 180
 2540 1 2.99857 2 180
 2541 1 2.99857 2 180
 2542 1 2.99857 2 180
 2543 1 5.99713 2 180
 2544 1 5.19752 2 180
 2545 1 2.99857 2 180
 2546 1 2.99857 2 180
 2547 1 2.99857 2 180
 2548 1 5.99713 2 180
 2549 1 0.00000 3 180
 2550 1 0.29986 3 180
 2551 1 0.00000 3 180
 2552 1 0.15992 3 0
 2553 1 9.99522 2 180
 2554 1 5.19752 2 180
 2555 1 5.19752 2 180
 2556 3 0.49976 2 180 0.34983 3 180 0.39981 6 0
 2557 3 0.99952 2 180 0.99952 3 0 0.39981 6 0
 2558 3 0.07027 2 0 1.40793 3 0 0.00110 6 180
 2559 1 0.00120 2 180
 2560 1 0.90367 2 180
 2561 3 0.50136 2 180 0.45048 3 180 0.09535 6 0
 2562 2 0.95344 2 180 0.62640 4 0
 2563 1 0.15992 3 0
 2564 2 6.64542 1 0 5.13614 2 180
 2565 1 9.99522 2 180
 2566 1 5.19752 2 180
 2567 1 5.19752 2 180
 2568 3 0.49976 2 180 0.34983 3 180 0.39981 6 0
 2569 3 0.99952 2 180 0.99952 3 0 0.39981 6 0
 2570 3 0.07027 2 0 1.40793 3 0 0.00110 6 180
 2571 1 0.00120 2 180
 2572 1 0.90367 2 180
 2573 3 0.50136 2 180 0.45048 3 180 0.09535 6 0
 2574 2 0.95344 2 180 0.62640 4 0
 2575 1 0.15992 3 0
 2576 2 6.64542 1 0 5.13614 2 180
 2577 2 1.59924 1 0 2.49881 2 180
 2578 1 2.59876 2 180
 2579 1 2.59876 2 180
 2580 2 2.74869 2 180 0.29986 4 0
 2581 2 2.74869 2 180 0.29986 4 0
 2582 1 1.64921 2 180
 2583 2 1.59924 1 0 2.49881 2 180
 2584 2 1.59924 1 0 2.49881 2 180
 2585 2 1.59924 1 0 2.49881 2 180
 2586 2 1.59924 1 0 2.49881 2 180
 2587 2 1.59924 1 0 2.49881 2 180
 2588 2 0.89957 1 0 3.49833 2 180
 2589 2 2.99177 1 0 7.03914 2 180
 2590 1 2.49881 2 180
 2591 1 1.39933 2 180
 2592 2 1.59924 1 0 2.49881 2 180
 2593 2 1.59924 1 0 2.49881 2 180
 2594 1 2.49881 2 180
 2595 2 1.59924 1 0 2.49881 2 180
 2596 2 2.74869 2 180 0.29986 4 0
 2597 2 2.74869 2 180 0.29986 4 0
 2598 1 2.04902 2 180
 2599 1 2.04902 2 180
 2600 1 2.04902 2 180
 2601 1 2.04902 2 180
 2602 2 3.02975 1 180 0.40671 2 180
 2603 1 0.73825 2 180
 2604 1 2.04902 2 180
 2605 5 0.84700 1 0 0.27177 2 180 0.37722 3 0 0.67398 4 180 0.58462 6 0
 2606 2 1.48819 1 180 1.84512 2 180
 2607 1 0.26987 2 180
 2608 4 0.74964 1 0 0.17991 2 180 0.06497 3 0 0.02999 6 0
 2609 3 1.64481 1 0 0.95554 2 180 0.13334 3 0
 2610 1 0.09995 3 0
 2611 1 0.09995 3 0
 2612 1 1.99904 2 180
 2613 1 0.49976 2 180
 2614 1 7.05423 2 180
 2615 1 5.24349 2 180
 2616 1 2.99857 2 180
 2617 1 2.99857 2 180
 2618 1 2.49881 2 180
 2619 1 0.05377 2 180
 2620 1 6.74847 2 180
 2621 1 0.99952 2 180
 2622 1 0.99952 2 180
 2623 1 2.49881 2 180
 2624 1 2.99857 2 180
 2625 1 2.49881 2 180
 2626 1 2.49881 2 180
 2627 1 2.49881 2 180
 2628 1 2.99857 2 180
 2629 1 0.38891 3 0
 2630 1 0.63770 3 180
 2631 1 0.64949 3 0
 2632 1 1.10337 3 180
 2633 1 2.99857 2 180
 2634 1 0.00000 2 180
 2635 1 2.99857 2 180
 2636 1 2.99857 2 180
 2637 1 3.06583 2 0
 2638 1 4.30414 2 180
 2639 1 0.77253 2 180
 2640 1 0.99952 2 180
 2641 1 2.49881 2 180
 2642 1 1.20302 2 180
 2643 1 2.99857 2 180
 2644 1 0.69967 2 180
 2645 1 0.69967 2 180
 2646 1 0.69967 2 180
 2647 1 3.16219 2 180
 2648 1 2.54059 2 180
 2649 1 3.79818 2 180
 2650 1 0.08926 2 180
 2651 1 0.08926 2 180
 2652 1 4.91545 2 180
 2653 1 6.99666 2 180
 2654 1 3.29343 2 180
 2655 1 0.09396 2 180
 2656 1 0.04828 2 180
 2657 1 4.99761 2 180
 2658 1 0.99952 2 180
 2659 1 1.82123 2 180
 2660 1 0.92656 2 180
 2661 1 2.39885 2 180
 2662 1 0.99952 2 180
 2663 1 2.39885 2 180
 2664 1 3.56440 2 180
 2665 1 2.39885 2 180
 2666 1 2.39885 2 180
 2667 1 3.09852 2 180
 2668 1 3.09852 2 180
 2669 1 4.49785 2 180
 2670 1 3.09852 2 180
 2671 1 3.99809 2 180
 2672 1 3.99809 2 180
 2673 1 5.59732 2 180
 2674 1 4.49785 2 180
 2675 1 0.99952 2 180
 2676 1 0.99952 2 180
 2677 1 2.39885 2 180
 2678 1 0.19990 3 0
 2679 1 0.19990 3 0
 2680 1 0.19990 3 0
 2681 1 0.13993 3 0
 2682 1 0.19491 3 0
 2683 1 0.19990 3 0
 2684 1 0.19990 3 0
 2685 1 0.19491 3 0
 2686 1 0.15992 3 0
 2687 3 1.14945 1 0 0.22989 2 180 0.48977 3 0
 2688 1 0.19990 3 0
 2689 1 0.49976 4 180
 2690 1 0.49976 4 180
 2691 1 0.14993 3 0
 2692 1 0.19990 3 0
 2693 2 0.39981 1 0 0.79962 3 0
 2694 1 0.13993 3 0
 2695 1 0.19491 3 0
 2696 1 0.19990 3 0
 2697 1 0.19990 3 0
 2698 1 0.19990 3 0
 2699 1 0.19491 3 0
 2700 1 0.19990 3 0
 2701 1 0.19990 3 0
 2702 1 0.03998 3 0
 2703 1 0.03998 3 0
 2704 1 0.19990 3 0
 2705 1 0.19990 3 0
 2706 1 0.19990 3 0
 2707 1 0.19990 3 0
 2708 1 0.19990 3 0
 2709 1 0.19990 3 0
 2710 1 0.19990 3 180
 2711 1 0.19990 3 180
 2712 1 0.19990 3 180
 2713 1 0.19491 1 0
 2714 1 0.24978 3 0
 2715 1 0.25478 3 0
 2716 1 0.19491 3 0
 2717 1 0.19491 3 0
 2718 1 0.19491 3 0
 2719 1 0.19491 3 0
 2720 1 0.19491 3 0
 2721 1 0.19990 3 0
 2722 1 0.49976 4 180
 2723 1 0.14993 3 0
 2724 1 0.19491 3 0
 2725 1 0.04998 3 0
 2726 1 0.04998 3 0
 2727 1 0.49976 4 180
 2728 1 0.14993 3 0
 2729 1 0.14993 3 0
 2730 1 0.00000 1 0
 2731 1 1.79914 1 0
 2732 2 3.41137 1 0 0.75064 3 0
 2733 1 1.79914 1 0
 2734 1 1.79914 1 0
 2735 1 1.79914 1 0
 2736 1 0.00000 1 0
 2737 1 0.39981 3 0
 2738 1 0.44978 3 0
 2739 2 1.09947 1 180 0.49976 3 0
 2740 1 0.69967 1 180
 2741 2 0.29986 1 0 0.29986 3 0
 2742 4 0.52975 1 180 0.67968 2 0 0.20990 3 180 0.14993 4 0
 2743 2 0.23989 1 180 0.36982 3 0
 2744 3 0.23989 1 0 0.14993 2 0 0.26987 3 0
 2745 1 0.00000 1 0
 2746 1 0.00000 1 0
 2747 1 0.19990 3 0
 2748 1 0.19990 3 0
 2749 1 0.19990 3 0
 2750 1 0.19990 3 0
 2751 1 0.19491 3 0
 2752 1 0.19990 3 0
 2753 1 0.00000 6 180
 2754 1 0.00000 6 180
 2755 1 0.25988 3 0
 2756 1 0.09995 3 0
 2757 1 0.09995 3 0
 2758 1 0.09995 3 0
 2759 4 0.06447 2 0 0.14968 3 180 0.09453 4 0 0.11246 5 0
 2760 1 0.19491 3 0
 2761 4 0.15044 2 0 0.08129 3 180 0.10819 4 0 0.20381 5 0
 2762 1 0.39981 3 0
 2763 1 0.14993 3 0
 2764 5 0.78962 1 180 0.19990 2 0 0.11994 3 0 0.14993 4 0 0.04998 6 180
 2765 1 0.19990 3 0
 2766 1 0.19990 3 0
 2767 1 0.19990 3 0
 2768 2 0.15992 1 180 0.38981 2 0
 2769 1 0.29986 3 0
 2770 2 0.15992 1 180 0.38981 2 0
 2771 1 0.19491 3 0
 2772 1 0.19491 3 0
 2773 1 0.19491 3 0
 2774 4 0.18991 1 180 0.99952 2 180 0.59971 3 0 0.07996 4 180
 2775 1 0.19491 3 0
 2776 1 0.19491 3 0
 2777 1 0.19491 3 0
 2778 1 0.99952 3 0
 2779 1 0.99952 3 0
 2780 1 0.99952 3 0
 2781 1 0.19491 3 0
 2782 1 0.19491 3 0
 2783 1 0.43709 3 180
 2784 1 0.15992 3 0
 2785 1 0.79962 4 180
 2786 1 0.79962 4 180
 2787 1 0.39981 3 0
 2788 1 0.19990 3 0
 2789 1 0.15792 3 0
 2790 1 0.19990 3 0
 2791 1 0.14993 3 0
 2792 1 0.14993 3 0
 2793 1 0.36543 3 0
 2794 5 0.60971 1 0 0.61970 2 180 0.24988 3 0 0.59971 4 0 0.24988 6 0
 2795 5 0.60971 1 0 0.61970 2 180 0.24988 3 0 0.59971 4 0 0.24988 6 0
 2796 5 0.60971 1 0 0.61970 2 180 0.24988 3 0 0.59971 4 0 0.24988 6 0
 2797 5 0.60971 1 0 0.61970 2 180 0.24988 3 0 0.59971 4 0 0.24988 6 0
 2798 5 0.60971 1 0 0.61970 2 180 0.24988 3 0 0.59971 4 0 0.24988 6 0
 2799 5 0.18991 1 180 0.33984 2 180 0.55973 3 180 0.11994 4 0 0.11994 6 180
 2800 3 0.65918 1 0 0.04978 2 0 1.61373 3 180
 2801 1 0.49976 2 0
 2802 1 1.79914 1 0
 2803 1 0.00000 3 0
 2804 1 0.09995 3 180
 2805 1 0.59771 1 0
 2806 1 0.09995 1 0
 2807 1 1.79914 1 0
 2808 1 1.79914 1 0
 2809 3 0.34983 1 180 0.74964 2 0 0.14993 4 0
 2810 1 0.00000 1 0
 2811 3 1.53986 1 180 0.09186 2 0 0.42470 3 0
 2812 3 0.74065 1 0 0.32085 2 0 0.23489 3 180
 2813 3 1.41932 1 180 0.81961 2 0 1.01951 3 0
 2814 3 0.09995 1 0 0.69967 2 0 0.09995 3 0
 2815 2 0.79962 1 180 1.09947 3 0
 2816 3 1.41932 1 180 0.81961 2 0 1.01951 3 0
 2817 1 0.29986 3 0
 2818 1 0.79962 3 0
 2819 3 0.23989 1 0 0.28986 2 0 0.01999 3 0
 2820 3 0.56973 1 0 0.28986 2 0 0.42979 3 0
 2821 3 0.56973 1 0 0.28986 2 0 0.42979 3 0
 2822 3 0.37252 1 180 0.72465 2 0 0.02269 3 0
 2823 3 0.16892 1 0 0.26987 2 0 0.72365 3 0
 2824 2 0.42010 1 180 0.89327 3 180
 2825 1 0.00000 3 0
 2826 3 0.59971 1 180 0.64969 2 0 0.04998 3 0
 2827 1 0.00000 3 0
 2828 3 1.12946 1 0 0.13993 2 0 0.23989 3 0
 2829 4 0.52975 1 180 0.67968 2 0 0.20990 3 180 0.14993 4 0
 2830 4 0.52975 1 180 0.67968 2 0 0.20990 3 180 0.14993 4 0
 2831 1 0.30985 3 0
 2832 2 0.52495 1 180 0.00990 3 180
 2833 2 0.23989 1 180 0.36982 3 0
 2834 2 0.53974 1 180 0.04998 3 0
 2835 2 0.23989 1 180 0.36982 3 0
 2836 2 0.77753 1 180 0.30585 3 0
 2837 2 0.23989 1 180 0.36982 3 0
 2838 2 0.23989 1 180 0.36982 3 0
 2839 3 0.23989 1 0 0.14993 2 0 0.26987 3 0
 2840 1 0.22989 3 0
 2841 3 0.89957 1 0 0.34983 2 0 0.12494 3 0
 2842 1 0.17991 3 0
 2843 2 0.17991 1 180 0.56973 3 0
 2844 3 1.59924 1 180 0.23989 2 180 0.02999 3 180
 2845 1 0.19990 3 0
 2846 1 0.19990 3 0
 2847 1 0.19990 3 0
 2848 3 0.08396 2 180 0.03298 4 0 0.02419 6 0
 2849 1 0.00000 6 180
 2850 1 0.09995 3 0
 2851 1 0.00000 6 180
 2852 1 0.25988 3 0
 2853 1 0.09995 3 0
 2854 1 0.09995 3 0
 2855 1 0.09995 3 0
 2856 3 0.39981 1 0 0.24988 2 0 0.59971 3 0
 2857 3 0.39981 1 0 0.24988 2 0 0.59971 3 0
 2858 3 0.39981 1 0 0.24988 2 0 0.59971 3 0
 2859 1 0.09995 3 0
 2860 1 0.09995 3 0
 2861 1 0.10995 6 180
 2862 1 0.19990 5 180
 2863 2 0.63969 5 0 0.80961 6 180
 2864 1 0.18991 3 0
 2865 1 0.18991 3 0
 2866 1 0.49976 2 180
 2867 1 0.29986 3 180
 2868 2 0.79962 3 180 0.19990 4 0
 2869 1 0.13993 3 0
 2870 1 0.18991 3 0
 2871 1 0.18991 3 0
 2872 1 0.00000 3 0
 2873 1 0.18991 3 0
 2874 3 2.19895 2 180 3.99809 3 0 0.54974 6 180
 2875 1 0.14993 3 0
 2876 1 0.14993 3 0
 2877 1 0.29986 3 0
 2878 1 0.29986 3 0
 2879 1 0.79962 3 0
 2880 1 0.14993 3 0
 2881 1 0.04998 3 0
 2882 1 0.14993 3 0
 2883 1 0.04998 3 0
 2884 1 0.14993 3 0
 2885 1 0.14993 3 0
 2886 1 0.44579 2 180
 2887 1 0.29276 3 180
 2888 2 1.69919 1 0 0.39981 2 0
 2889 1 0.00000 3 0
 2890 1 0.00000 3 0
 2891 2 0.39981 3 0 0.49976 4 0
 2892 1 1.89909 2 0
 2893 1 0.55174 3 0
 2894 3 1.16944 1 180 1.15945 2 0 1.01951 3 0
 2895 3 1.16944 1 180 1.15945 2 0 1.01951 3 0
 2896 1 0.19990 3 0
 2897 2 1.49928 2 0 0.49976 3 0
 2898 2 1.99904 2 0 0.29986 3 0
 2899 2 1.99904 2 0 0.29986 3 0
 2900 4 0.90157 1 180 0.63470 2 0 1.44331 3 0 0.33184 4 180
 2901 1 0.19990 3 0
 2902 2 0.62090 2 0 0.02509 3 180
 2903 3 2.23183 1 0 0.27967 2 0 0.24438 3 0
 2904 1 0.09995 3 0
 2905 1 0.49976 3 0
 2906 2 0.94955 2 0 0.49976 3 0
 2907 2 0.94955 2 0 0.49976 3 0
 2908 1 0.09995 3 0
 2909 1 0.09995 3 0
 2910 3 1.87131 1 0 1.24311 2 0 0.73735 3 0
 2911 3 0.39981 1 0 0.25988 2 0 0.34983 3 0
 2912 1 0.09995 3 0
 2913 3 1.19943 1 180 0.09995 2 180 0.09995 3 180
 2914 3 1.19943 1 180 0.09995 2 180 0.09995 3 180
 2915 2 0.94955 2 0 0.49976 3 0
 2916 1 0.09995 3 0
 2917 1 0.09995 3 0
 2918 1 0.09995 3 0
 2919 1 0.09995 3 0
 2920 1 0.00000 3 0
 2921 3 1.09947 1 180 0.69967 2 0 0.29986 3 0
 2922 1 0.29986 3 0
 2923 3 0.99952 1 0 4.09804 2 0 0.89957 3 0
 2924 3 0.99952 1 0 4.09804 2 0 0.89957 3 0
 2925 3 0.99902 1 0 3.57459 2 0 0.65279 3 0
 2926 3 0.91796 1 0 4.06666 2 0 0.32774 3 0
 2927 1 0.00000 1 0
 2928 1 1.39933 1 0
 2929 2 2.74869 2 180 0.29986 4 0
 2930 1 0.00000 1 0
 2931 1 1.39933 1 0
 2932 2 0.44978 1 180 6.99666 2 180
 2933 2 2.74869 2 180 0.29986 4 0
 2934 2 2.74869 2 180 0.29986 4 0
 2935 2 1.59924 1 0 2.49881 2 180
 2936 2 1.59924 1 0 2.49881 2 180
 2937 2 1.59924 1 0 2.49881 2 180
 2938 1 2.49881 2 180
 2939 1 1.39933 2 180
 2940 1 2.99857 2 180
 2941 1 0.99952 2 180
 2942 1 0.99952 2 180
 2943 1 2.19895 2 180
 2944 1 2.49881 2 180
 2945 1 2.99857 2 180
 2946 1 2.39885 2 180
 2947 1 3.19847 2 180
 2948 1 5.39742 2 180
 2949 1 4.49785 2 180
 2950 1 4.49785 2 180
 2951 1 0.00000 2 180
 2952 1 0.19491 3 0
 2953 1 0.19491 3 0
 2954 1 0.19990 3 0
 2955 1 0.19491 3 0
 2956 1 0.19990 3 0
 2957 1 1.79914 1 0
 2958 1 0.00000 1 0
 2959 2 0.49976 1 0 0.69967 2 0
 2960 1 0.19491 3 0
 2961 1 0.19491 3 0
 2962 1 0.19491 3 0
 2963 1 0.19990 3 0
 2964 1 0.00000 3 0
 2965 3 0.59971 1 180 0.64969 2 0 0.04998 3 0
 2966 3 1.12946 1 0 0.13993 2 0 0.23989 3 0
 2967 1 0.49976 3 0
 2968 1 0.19491 3 0
 2969 1 0.21989 3 0
 2970 1 0.19491 3 0
 2971 1 0.19491 3 0
 2972 1 0.09995 6 0
 2973 1 0.19990 5 180
 2974 1 0.04998 6 180
 2975 1 0.04998 6 180
 2976 2 2.74869 2 180 0.29986 4 0
 2977 1 0.04998 6 180
 2978 1 0.04998 6 180
 2979 2 0.44978 1 180 8.49594 2 180
 2980 1 0.99952 2 180
 2981 1 5.19752 2 180
 2982 1 0.39981 3 0
 2983 1 0.39981 3 0
 2984 1 0.18991 3 0
 2985 3 0.24988 1 180 0.51975 2 180 0.22989 3 180
 2986 1 0.18991 3 0
 2987 1 0.15992 3 0
 2988 1 11.99427 2 180
 2989 1 11.99427 2 180
 2990 1 11.99427 2 180
 2991 1 6.99666 2 180
 2992 1 4.99761 2 180
 2993 1 6.50709 2 180
 2994 1 6.50709 2 180
 2995 1 2.58446 2 180
 2996 1 2.58446 2 180
 2997 1 6.50709 2 180
 2998 1 6.50709 2 180
 2999 1 2.58446 2 180
 3000 1 2.58446 2 180
 3001 1 5.19752 2 180
 3002 2 1.09947 1 180 0.69967 2 180
 3003 2 1.09947 1 180 0.69967 2 180
 3004 1 0.99952 2 180
 3005 1 5.19752 2 180
 3006 3 0.96714 2 180 1.63742 3 0 0.00010 6 0
 3007 1 0.00120 2 180
 3008 1 0.90367 2 180
 3009 3 0.50136 2 180 0.45048 3 180 0.09535 6 0
 3010 2 0.95344 2 180 0.62640 4 0
 3011 1 0.18991 3 0
 3012 1 0.18991 3 0
 3013 1 0.29986 3 0
 3014 2 5.94576 1 0 6.61924 2 180
 3015 1 9.22219 2 180
 3016 1 7.94780 2 180
 3017 1 4.06086 2 180
 3018 1 5.19752 2 180
 3019 1 5.19752 2 180
 3020 3 0.96714 2 180 1.63742 3 0 0.00010 6 0
 3021 1 0.00120 2 180
 3022 1 0.90367 2 180
 3023 3 0.50136 2 180 0.45048 3 180 0.09535 6 0
 3024 2 0.95344 2 180 0.62640 4 0
 3025 1 0.18991 3 0
 3026 1 0.18991 3 0
 3027 1 0.29986 3 0
 3028 2 5.94576 1 0 6.61924 2 180
 3029 1 9.22219 2 180
 3030 1 7.94780 2 180
 3031 1 4.06086 2 180
 3032 1 3.49833 2 180
 3033 2 1.15805 1 180 1.50318 2 0
 3034 2 1.15805 1 180 1.50318 2 0
 3035 6 3.83007 1 180 1.98555 2 180 0.97403 3 0 1.75146 4 0 1.31017 5 180 0.48027 6 0
 3036 3 3.48963 1 180 3.82887 2 180 2.33318 3 0
 3037 3 3.48963 1 180 3.82887 2 180 2.33318 3 0
 3038 2 1.59924 1 0 2.49881 2 180
 3039 1 2.59876 2 180
 3040 1 2.59876 2 180
 3041 1 2.59876 2 180
 3042 2 2.74869 2 180 0.29986 4 0
 3043 2 2.74869 2 180 0.29986 4 0
 3044 2 2.74869 2 180 0.29986 4 0
 3045 2 1.57335 1 0 0.05198 2 180
 3046 2 1.57335 1 0 0.05198 2 180
 3047 2 1.59924 1 0 2.49881 2 180
 3048 2 1.59924 1 0 2.49881 2 180
 3049 2 1.59924 1 0 2.49881 2 180
 3050 2 1.59924 1 0 2.49881 2 180
 3051 2 1.59924 1 0 2.49881 2 180
 3052 2 1.59924 1 0 2.49881 2 180
 3053 2 0.89957 1 0 3.49833 2 180
 3054 1 2.49881 2 180
 3055 1 1.39933 2 180
 3056 1 2.49881 2 180
 3057 2 1.59924 1 0 2.49881 2 180
 3058 1 2.04902 2 180
 3059 1 2.04902 2 180
 3060 1 2.04902 2 180
 3061 1 2.04902 2 180
 3062 2 0.59502 1 0 2.92530 2 180
 3063 1 0.24988 2 180
 3064 4 0.74964 1 0 0.17991 2 180 0.06497 3 0 0.02999 6 0
 3065 4 0.74964 1 0 0.17991 2 180 0.06497 3 0 0.02999 6 0
 3066 3 1.64481 1 0 0.95554 2 180 0.13334 3 0
 3067 1 0.09995 3 0
 3068 1 0.09995 3 0
 3069 1 0.49976 2 180
 3070 1 7.05423 2 180
 3071 1 6.02702 2 180
 3072 1 6.02702 2 180
 3073 1 2.99857 2 180
 3074 1 2.99857 2 180
 3075 1 2.49881 2 180
 3076 1 4.29795 2 180
 3077 1 0.05377 2 180
 3078 1 2.32729 2 180
 3079 1 6.74847 2 180
 3080 1 0.99952 2 180
 3081 1 0.99952 2 180
 3082 1 2.49881 2 180
 3083 1 2.49881 2 180
 3084 1 2.49881 2 180
 3085 1 0.38891 3 0
 3086 1 0.63770 3 180
 3087 1 2.99857 2 180
 3088 1 4.09804 2 180
 3089 1 2.99857 2 180
 3090 1 0.99952 2 180
 3091 1 2.49881 2 180
 3092 1 2.99857 2 180
 3093 1 0.69967 2 180
 3094 1 0.69967 2 180
 3095 1 3.53611 2 180
 3096 1 2.54059 2 180
 3097 1 0.16192 2 180
 3098 1 0.16192 2 180
 3099 1 4.91545 2 180
 3100 1 5.49737 2 180
 3101 1 6.99666 2 180
 3102 1 3.29343 2 180
 3103 1 7.06372 2 180
 3104 1 5.49737 2 180
 3105 1 0.00410 2 180
 3106 1 2.99857 2 180
 3107 1 4.99761 2 180
 3108 1 0.99952 2 180
 3109 1 2.99857 2 180
 3110 1 1.82123 2 180
 3111 1 0.92656 2 180
 3112 1 2.39885 2 180
 3113 1 3.04674 2 180
 3114 1 0.99952 2 180
 3115 1 2.39885 2 180
 3116 1 2.39885 2 180
 3117 1 2.39885 2 180
 3118 1 3.56829 2 180
 3119 1 2.39885 2 180
 3120 1 2.39885 2 180
 3121 1 3.09852 2 180
 3122 1 3.09852 2 180
 3123 1 4.49785 2 180
 3124 1 3.09852 2 180
 3125 1 3.09852 2 180
 3126 1 3.99809 2 180
 3127 1 8.99570 2 180
 3128 1 3.99809 2 180
 3129 1 5.59732 2 180
 3130 1 8.99570 2 180
 3131 1 0.99952 2 180
 3132 1 0.99952 2 180
 3133 1 0.99952 2 180
 3134 1 2.39885 2 180
 3135 1 5.49737 2 180
 3136 1 10.99474 2 180
 3137 1 0.19990 3 0
 3138 1 0.19990 3 0
 3139 1 0.19990 3 0
 3140 1 0.19990 3 0
 3141 1 0.13993 3 0
 3142 1 0.19491 3 0
 3143 1 0.19990 3 0
 3144 3 0.43979 1 0 0.01999 2 180 0.72965 3 180
 3145 1 0.19990 3 180
 3146 3 0.93755 1 180 0.38372 2 0 0.17901 3 0
 3147 1 0.19491 3 0
 3148 1 0.15992 3 0
 3149 2 0.39981 1 0 0.48977 3 0
 3150 1 0.00000 3 0
 3151 3 0.39981 1 180 0.29986 2 0 0.09995 3 0
 3152 3 1.12946 1 0 0.13993 2 0 0.23989 3 0
 3153 2 1.33706 1 0 0.25598 3 0
 3154 3 12.05314 1 0 2.06511 2 0 0.22609 3 0
 3155 1 0.19990 3 0
 3156 1 0.49976 4 180
 3157 1 0.19990 3 0
 3158 2 0.39981 1 0 0.79962 3 0
 3159 1 0.13993 3 0
 3160 1 0.19491 3 0
 3161 1 0.19990 3 0
 3162 1 0.19990 3 0
 3163 1 0.19990 3 0
 3164 1 0.19491 3 0
 3165 1 0.19990 3 0
 3166 1 0.19990 3 0
 3167 1 0.34983 3 0
 3168 1 0.03998 3 0
 3169 1 0.19990 3 0
 3170 1 0.19990 3 0
 3171 1 0.19990 3 0
 3172 1 0.19990 3 0
 3173 1 0.34983 3 0
 3174 1 0.19990 3 0
 3175 1 1.42742 3 0
 3176 1 0.19990 3 0
 3177 1 0.24978 3 0
 3178 1 0.25478 3 0
 3179 1 0.19491 3 0
 3180 1 0.19491 3 0
 3181 1 0.19491 3 0
 3182 3 0.24988 1 0 0.24988 2 0 0.44978 3 0
 3183 1 0.19990 3 0
 3184 1 0.19491 3 0
 3185 1 1.79914 1 0
 3186 2 3.05974 1 0 0.11175 2 180
 3187 1 1.79914 1 0
 3188 1 1.79914 1 0
 3189 1 0.00000 1 0
 3190 2 0.49976 1 0 0.39981 3 0
 3191 2 0.39981 1 0 0.48977 3 0
 3192 2 1.09947 1 180 0.49976 3 0
 3193 1 0.00000 3 0
 3194 3 0.39981 1 180 0.29986 2 0 0.09995 3 0
 3195 3 0.39981 1 180 0.29986 2 0 0.09995 3 0
 3196 1 0.00000 3 0
 3197 3 1.32936 1 0 0.17991 2 0 0.45978 3 0
 3198 2 0.23989 1 180 0.36982 3 0
 3199 2 0.23989 1 180 0.36982 3 0
 3200 3 0.23989 1 0 0.14993 2 0 0.26987 3 0
 3201 1 0.00000 1 0
 3202 1 0.00000 1 0
 3203 1 0.19990 3 0
 3204 1 0.19990 3 0
 3205 1 0.19990 3 0
 3206 1 0.19990 3 0
 3207 1 0.19491 3 0
 3208 1 0.19491 3 0
 3209 1 0.00000 6 180
 3210 1 0.00000 6 180
 3211 1 0.25988 3 0
 3212 1 0.09995 3 0
 3213 1 0.09995 3 0
 3214 1 0.09995 3 0
 3215 2 0.03817 2 0 0.03176 6 180
 3216 2 0.74025 1 180 0.64439 3 0
 3217 5 0.78962 1 180 0.19990 2 0 0.11994 3 0 0.14993 4 0 0.04998 6 180
 3218 1 0.49976 1 180
 3219 1 0.19990 3 0
 3220 1 0.29986 3 0
 3221 2 0.15992 1 180 0.38981 2 0
 3222 1 0.19491 3 0
 3223 1 0.19491 3 0
 3224 1 0.19491 3 0
 3225 3 0.93955 1 180 0.37982 2 0 0.10995 3 0
 3226 1 0.17991 3 0
 3227 1 0.95095 3 0
 3228 1 0.34464 3 180
 3229 1 0.01829 3 180
 3230 3 0.87688 1 180 0.23809 2 0 0.14643 3 180
 3231 1 0.19491 3 0
 3232 1 0.19491 3 0
 3233 1 0.15992 3 0
 3234 1 0.00000 3 0
 3235 2 0.46978 1 180 0.12994 3 0
 3236 2 0.17991 1 0 1.06949 3 0
 3237 2 0.60721 1 0 0.40721 3 0
 3238 5 0.60971 1 0 0.61970 2 180 0.24988 3 0 0.59971 4 0 0.24988 6 0
 3239 5 0.60971 1 0 0.61970 2 180 0.24988 3 0 0.59971 4 0 0.24988 6 0
 3240 5 0.18991 1 0 0.33984 2 180 0.55973 3 180 0.11994 4 0 0.11994 6 180
 3241 3 0.65918 1 0 0.04978 2 0 1.61373 3 180
 3242 4 0.38482 1 0 0.41980 2 0 0.07996 3 0 0.05497 4 0
 3243 4 0.38482 1 0 0.41980 2 0 0.07996 3 0 0.05497 4 0
 3244 4 0.38482 1 180 0.41980 2 0 0.07996 3 180 0.05497 4 0
 3245 1 0.00000 1 0
 3246 1 1.68919 1 0
 3247 1 1.73917 1 0
 3248 1 1.79914 1 0
 3249 3 0.34983 1 180 0.74964 2 0 0.14993 4 0
 3250 2 1.41272 1 0 1.28059 2 0
 3251 1 0.19731 1 0
 3252 1 0.59771 1 0
 3253 2 0.61930 2 0 0.17811 3 180
 3254 3 0.34983 1 180 0.74964 2 0 0.14993 4 0
 3255 1 0.00000 1 0
 3256 3 1.53986 1 180 0.09186 2 0 0.42470 3 0
 3257 5 0.75464 1 180 0.86559 2 0 0.62770 3 0 0.15093 4 180 0.11295 6 0
 3258 3 0.74065 1 0 0.32085 2 0 0.23489 3 180
 3259 3 0.43979 1 180 0.02999 2 0 0.01000 3 0
 3260 2 0.05997 2 0 0.46978 3 0
 3261 3 0.09995 1 0 0.69967 2 0 0.09995 3 0
 3262 1 0.09995 3 0
 3263 3 0.23989 1 0 0.28986 2 0 0.01999 3 0
 3264 2 0.39981 1 0 0.48977 3 0
 3265 2 0.39981 1 0 0.48977 3 0
 3266 3 0.37252 1 180 0.72465 2 0 0.02269 3 0
 3267 3 0.16892 1 0 0.26987 2 0 0.72365 3 0
 3268 2 0.42010 1 180 0.89327 3 180
 3269 1 0.00000 3 0
 3270 3 0.09995 1 180 0.59971 2 0 0.09995 3 180
 3271 3 0.59971 1 180 0.64969 2 0 0.04998 3 0
 3272 3 0.59971 1 180 0.64969 2 0 0.04998 3 0
 3273 3 0.59971 1 180 0.64969 2 0 0.04998 3 0
 3274 1 0.00000 3 0
 3275 3 1.12946 1 0 0.13993 2 0 0.23989 3 0
 3276 3 0.33584 1 180 0.52325 2 0 0.15393 3 180
 3277 3 0.98723 1 180 0.06667 2 0 0.24778 3 0
 3278 2 0.72805 1 180 0.32784 3 0
 3279 3 1.44761 1 180 0.61131 2 0 1.23391 3 0
 3280 1 0.30985 3 0
 3281 1 0.30985 3 0
 3282 2 0.80771 1 180 0.49676 2 0
 3283 2 0.52495 1 180 0.00990 3 180
 3284 2 0.20730 1 180 0.50866 2 0
 3285 3 0.11824 1 180 0.76903 2 0 0.92606 3 180
 3286 2 0.23989 1 180 0.36982 3 0
 3287 2 0.23989 1 180 0.36982 3 0
 3288 2 0.77753 1 180 0.30585 3 0
 3289 2 0.23989 1 180 0.36982 3 0
 3290 2 0.23989 1 180 0.36982 3 0
 3291 3 0.18391 1 180 0.25288 2 0 0.14993 3 0
 3292 2 0.05018 1 180 0.67977 2 0
 3293 3 0.23989 1 0 0.14993 2 0 0.26987 3 0
 3294 1 0.25988 3 0
 3295 3 0.89957 1 0 0.34983 2 0 0.12494 3 0
 3296 3 0.09995 1 0 0.39981 2 0 0.35983 3 0
 3297 1 0.17991 3 0
 3298 2 0.17991 1 180 0.56973 3 0
 3299 3 1.59924 1 180 0.23989 2 180 0.02999 3 180
 3300 3 0.39261 2 0 0.32754 4 0 0.30006 6 0
 3301 3 0.37042 2 180 0.01319 4 180 0.02129 6 180
 3302 1 0.19990 3 0
 3303 1 0.18361 3 0
 3304 1 0.19990 3 0
 3305 1 0.19990 3 0
 3306 1 0.00000 6 180
 3307 1 0.25988 3 0
 3308 1 0.25988 3 0
 3309 3 0.39981 1 0 0.24988 2 0 0.59971 3 0
 3310 3 0.39981 1 0 0.24988 2 0 0.59971 3 0
 3311 1 0.09995 3 0
 3312 1 0.09995 3 0
 3313 1 3.12301 3 0
 3314 1 0.44499 3 0
 3315 1 0.18991 3 0
 3316 1 0.18991 3 0
 3317 1 0.79962 3 180
 3318 1 0.13993 3 0
 3319 1 0.18991 3 0
 3320 3 0.42150 3 0 0.59122 4 180 0.22999 6 180
 3321 1 0.18991 3 0
 3322 1 0.18991 3 0
 3323 1 0.49976 2 180
 3324 1 0.18991 3 0
 3325 1 0.19990 3 0
 3326 1 0.19990 3 0
 3327 1 0.19990 3 0
 3328 1 0.29986 3 0
 3329 1 0.29986 3 0
 3330 1 0.04998 3 0
 3331 1 0.04998 3 0
 3332 1 0.62980 3 0
 3333 2 1.11667 2 0 0.08146 3 0
 3334 2 0.39981 3 0 0.49976 4 0
 3335 1 1.89909 2 0
 3336 1 0.53674 3 0
 3337 2 1.49928 2 0 0.49976 3 0
 3338 2 1.99904 2 0 0.19990 3 0
 3339 5 1.25540 1 180 0.62370 2 0 1.82513 3 0 0.21390 4 180 0.26287 6 180
 3340 1 0.19990 3 0
 3341 3 0.39981 1 0 1.14945 2 0 0.11994 3 0
 3342 2 1.29938 2 180 0.39981 3 0
 3343 2 1.59924 2 180 0.29986 3 0
 3344 3 0.99952 1 0 1.59924 2 180 0.39981 3 0
 3345 2 0.62090 2 0 0.02509 3 180
 3346 3 2.23183 1 0 0.27967 2 0 0.24438 3 0
 3347 1 0.09995 3 0
 3348 2 0.94955 2 0 0.49976 3 0
 3349 2 0.94955 2 0 0.49976 3 0
 3350 3 0.39981 1 0 0.25988 2 0 0.34983 3 0
 3351 1 0.09995 3 0
 3352 3 1.19943 1 180 0.09995 2 180 0.09995 3 180
 3353 3 1.19943 1 180 0.09995 2 180 0.09995 3 180
 3354 2 0.94955 2 0 0.49976 3 0
 3355 1 0.09995 3 0
 3356 2 0.39981 1 0 0.09995 3 0
 3357 3 0.44978 1 180 0.19990 2 0 0.09995 3 0
 3358 1 0.00000 3 0
 3359 3 1.09947 1 180 0.69967 2 0 0.29986 3 0
 3360 3 1.79914 1 180 0.49976 2 0 0.39981 3 0
 3361 1 0.29986 3 0
 3362 3 0.99952 1 0 4.09804 2 0 0.89957 3 0
 3363 1 0.99952 2 180
 3364 1 0.99952 2 180
 3365 1 0.99952 2 180
 3366 1 7.99618 2 180
 3367 1 0.99952 2 180
 3368 1 5.19752 2 180
 3369 1 0.99952 2 180
 3370 1 0.99952 2 180
 3371 1 7.99618 2 180
 3372 1 0.99952 2 180
 3373 1 0.00000 3 0
 3374 1 0.11994 3 0
 3375 1 0.00000 3 0
 3376 1 0.00000 3 0
 3377 1 0.24838 3 0
 3378 1 0.00000 3 0
 3379 1 0.00000 3 0
 3380 1 0.00000 3 0
 3381 1 0.00000 3 0
 3382 1 0.00000 3 0
 3383 1 0.11994 3 0
 3384 1 0.11994 3 0
 3385 1 0.25988 3 0
 3386 1 0.19990 3 0
 3387 1 0.19990 3 0
 3388 1 0.00000 3 0
 3389 1 0.19990 3 0
 3390 1 0.19990 3 0
 3391 1 0.00000 3 0
 3392 1 0.00000 3 0
 3393 1 8.49594 2 180
 3394 1 8.49594 2 180
 3395 1 3.99809 2 180
 3396 1 0.00500 3 0
 3397 1 0.05527 3 0
 3398 1 1.99904 2 180
 3399 1 5.99713 2 180
 3400 1 0.99952 2 180
 3401 1 0.99952 2 180
 3402 1 2.49881 2 180
 3403 1 3.99809 2 180
 3404 1 0.09995 2 180
 3405 1 0.09995 2 180
 3406 1 0.09995 2 180
 3407 1 0.09995 2 180
 3408 1 0.15992 3 0
 3409 1 0.00000 2 180
 3410 1 0.00000 2 180
 3411 1 0.00000 2 180
 3412 1 0.00000 2 180
 3413 1 5.99713 2 180
 3414 1 0.99952 2 180
 3415 1 0.99952 2 180
 3416 1 2.49881 2 180
 3417 1 3.99809 2 180
 3418 1 0.09995 2 180
 3419 1 0.09995 2 180
 3420 1 0.09995 2 180
 3421 1 0.09995 2 180
 3422 1 0.15992 3 0
 3423 1 0.00000 2 180
 3424 1 0.00000 2 180
 3425 1 0.00000 2 180
 3426 1 0.00000 2 180
 3427 1 5.19752 2 180
 3428 1 0.99952 2 180
 3429 1 1.75026 2 180
 3430 1 0.99952 2 180
 3431 1 0.99952 2 180
 3432 1 1.01491 2 180
 3433 1 0.99952 2 180
 3434 1 0.99952 2 180
 3435 1 0.90087 2 180
 3436 1 0.99952 2 180
 3437 1 0.00000 2 180
 3438 1 0.00000 2 180
 3439 1 5.19752 2 180
 3440 1 0.29986 3 180
 3441 1 0.29986 3 180
 3442 1 0.29986 3 180
 3443 1 0.00000 2 180
 3444 1 0.25878 2 180
 3445 1 0.00000 2 180
 3446 1 0.00000 2 180
 3447 1 0.00000 2 180
 3448 1 2.35637 2 180
 3449 1 3.09662 2 180
 3450 1 0.05247 2 180
 3451 1 0.00000 2 180
 3452 1 0.00000 2 180
 3453 1 0.83420 2 180
 3454 1 0.59312 2 180
 3455 1 0.00550 2 180
 3456 1 0.59971 2 180
 3457 1 0.19990 3 0
 3458 1 0.19990 3 0
 3459 1 0.19990 3 0
 3460 1 0.19990 3 0
 3461 1 0.00000 3 0
 3462 1 3.68174 2 180
 3463 1 4.39450 2 180
 3464 1 3.99809 2 180
 3465 1 5.19752 2 180
 3466 1 5.19752 2 180
 3467 1 0.29986 3 180
 3468 1 0.29986 3 180
 3469 1 0.29986 3 180
 3470 1 0.00000 2 180
 3471 1 0.25878 2 180
 3472 1 0.00000 2 180
 3473 1 0.00000 2 180
 3474 1 0.00000 2 180
 3475 1 2.35637 2 180
 3476 1 3.09662 2 180
 3477 1 0.05247 2 180
 3478 1 0.00000 2 180
 3479 1 0.00000 2 180
 3480 1 0.83420 2 180
 3481 1 0.59312 2 180
 3482 1 0.00550 2 180
 3483 1 0.59971 2 180
 3484 1 0.19990 3 0
 3485 1 0.19990 3 0
 3486 1 0.19990 3 0
 3487 1 0.19990 3 0
 3488 1 0.00000 3 0
 3489 1 3.68174 2 180
 3490 1 4.39450 2 180
 3491 1 3.99809 2 180
 3492 1 5.19752 2 180
 3493 1 0.19990 3 0
 3494 1 0.19990 3 0
 3495 1 0.19491 3 0
 3496 1 0.19491 3 0
 3497 2 0.49976 1 180 1.29938 3 180
 3498 2 0.49976 1 180 1.29938 3 180
 3499 2 0.49976 1 180 1.29938 3 180
 3500 3 0.99952 1 180 0.09995 2 0 0.29986 3 180
 3501 1 0.59971 1 180
 3502 1 0.29986 3 180
 3503 4 0.99952 1 180 0.09995 2 0 0.29986 3 180 0.19990 4 0
 3504 1 2.14068 1 180
 3505 1 0.29986 3 180
 3506 4 0.99952 1 180 0.09995 2 0 0.29986 3 180 0.19990 4 0
 3507 2 0.49976 1 180 1.29938 3 180
 3508 1 0.59971 1 180
 3509 2 0.89957 1 180 0.19990 2 180
 3510 2 1.59924 1 180 0.29986 3 0
 3511 3 1.89909 1 180 0.39981 2 180 0.59971 3 180
 3512 2 0.69967 1 180 1.39933 3 180
 3513 1 0.29986 3 180
 3514 3 1.89909 1 180 0.39981 2 180 0.59971 3 180
 3515 2 0.59971 1 0 0.81961 2 0
 3516 1 0.29986 3 180
 3517 1 0.29986 3 180
 3518 1 0.09995 2 180
 3519 1 0.09995 2 180
 3520 1 0.09995 2 180
 3521 1 0.09995 2 180
 3522 1 2.99857 2 180
 3523 1 2.99857 2 180
 3524 1 0.09995 2 180
 3525 1 0.09995 2 180
 3526 1 0.09995 2 180
 3527 1 0.09995 2 180
 3528 1 2.99857 2 180
 3529 1 2.99857 2 180
 3530 1 0.19990 3 0
 3531 1 0.19990 3 0
 3532 1 0.19491 3 0
 3533 1 0.19990 3 0
 3534 1 0.19491 3 0
 3535 1 0.15992 3 0
 3536 3 0.13993 1 180 0.16992 2 0 0.04998 3 180
 3537 3 0.13993 1 180 0.16992 2 0 0.04998 3 180
 3538 1 0.19491 3 0
 3539 1 0.22089 3 0
 3540 2 0.89957 1 180 0.29986 3 180
 3541 1 0.19990 3 0
 3542 3 0.13993 1 180 0.16992 2 0 0.04998 3 180
 3543 3 0.13993 1 180 0.16992 2 0 0.04998 3 180
 3544 1 0.19491 3 0
 3545 3 0.13993 1 180 0.16992 2 0 0.04998 3 180
 3546 1 0.15992 3 0
 3547 2 1.99904 1 180 0.29986 3 180
 3548 3 1.09947 1 180 0.59971 2 180 0.49976 3 0
 3549 3 1.09947 1 180 0.59971 2 180 0.49976 3 0
 3550 1 0.47977 3 0
 3551 3 1.29938 1 0 0.69967 2 0 0.13993 3 0
 3552 3 1.29938 1 180 0.99952 2 0 0.19990 3 0
 3553 3 0.59971 1 180 0.64969 2 0 0.04998 3 0
 3554 1 0.09565 3 0
 3555 1 0.20810 1 180
 3556 2 0.69967 1 180 0.79962 3 0
 3557 2 0.69967 1 180 0.79962 3 0
 3558 1 0.04998 3 0
 3559 2 3.39838 1 180 1.29938 2 180
 3560 1 2.49881 2 180
 3561 1 1.79914 1 0
 3562 1 0.00000 1 0
 3563 1 0.00000 1 0
 3564 2 0.49976 2 0 0.44978 4 0
 3565 1 0.00000 3 180
 3566 1 0.09995 3 0
 3567 3 1.49928 1 180 0.99952 2 180 1.49928 3 0
 3568 3 1.49928 1 180 0.99952 2 180 1.49928 3 0
 3569 1 0.99952 2 180
 3570 1 6.02842 2 0
 3571 2 1.09947 1 180 1.94907 2 180
 3572 2 0.29986 1 0 1.94907 2 180
 3573 1 6.82444 2 180
 3574 1 1.14305 2 180
 3575 1 1.29938 2 180
 3576 1 3.28343 2 180
 3577 1 1.39933 2 180
 3578 1 0.00000 3 180
 3579 1 0.00000 3 180
 3580 1 0.29986 3 180
 3581 2 1.59924 1 0 2.49881 2 180
 3582 1 2.49881 2 180
 3583 2 1.59924 1 0 2.49881 2 180
 3584 1 2.49881 2 180
 3585 2 1.59924 1 0 2.49881 2 180
 3586 2 1.59924 1 0 2.49881 2 180
 3587 2 2.74869 2 180 0.29986 4 0
 3588 2 2.74869 2 180 0.29986 4 0
 3589 2 2.74869 2 180 0.29986 4 0
 3590 3 1.19943 1 180 0.39981 2 180 1.29938 3 180
 3591 2 0.49976 1 180 1.29938 3 180
 3592 2 0.49976 1 180 1.29938 3 180
 3593 2 1.59924 1 180 0.29986 3 0
 3594 3 1.89909 1 180 0.39981 2 180 0.59971 3 180
 3595 2 0.69967 1 180 1.39933 3 180
 3596 1 0.11994 3 0
 3597 1 0.04998 3 180
 3598 3 0.59911 1 180 0.00370 2 180 1.04420 3 180
 3599 3 0.00230 1 180 0.04108 2 180 0.07816 3 180
 3600 4 1.69919 1 0 3.05854 2 180 0.22989 3 180 0.11994 4 0
 3601 3 0.89957 1 180 3.09852 2 180 1.19943 3 180
 3602 4 1.69919 1 0 3.05854 2 180 0.22989 3 180 0.11994 4 0
 3603 3 0.89957 1 180 3.09852 2 180 1.19943 3 180
 3604 2 0.49976 2 0 0.44978 4 0
 3605 1 0.00000 3 180
 3606 1 0.09995 3 0
 3607 1 6.02842 2 0
 3608 2 1.09947 1 180 1.94907 2 180
 3609 2 0.29986 1 0 1.94907 2 180
 3610 1 6.82444 2 180
 3611 1 1.14305 2 180
 3612 1 1.29938 2 180
 3613 1 3.28343 2 180
 3614 1 1.39933 2 180
 3615 1 0.00000 3 180
 3616 1 0.00000 3 180
 3617 1 0.29986 3 180
 3618 2 1.59924 1 0 2.49881 2 180
 3619 1 2.49881 2 180
 3620 1 0.09995 3 180
 3621 1 5.04999 2 180
 3622 1 2.99857 2 180
 3623 1 0.17961 3 180
 3624 2 1.69729 1 180 0.94285 2 180
 3625 2 1.69729 1 180 0.94285 2 180
 3626 1 5.04999 2 180
 3627 1 2.99857 2 180
 3628 1 0.17961 3 180
 3629 2 1.69729 1 180 0.94285 2 180
 3630 2 1.69729 1 180 0.94285 2 180
 3631 4 0.47777 1 0 2.21174 2 180 0.93275 3 0 0.82930 4 0
 3632 1 0.90087 2 180
 3633 1 0.49796 2 0
 3634 1 0.00160 2 180
 3635 1 0.01109 2 180
 3636 1 3.59818 2 180
 3637 1 1.78185 2 180
 3638 1 1.59924 2 180
 3639 2 0.06027 2 0 0.47247 3 0
 3640 1 0.38582 3 180
 3641 1 0.38582 3 180
 3642 1 0.49796 2 0
 3643 1 0.00160 2 180
 3644 1 0.01109 2 180
 3645 1 3.59818 2 180
 3646 1 1.78185 2 180
 3647 1 1.59924 2 180
 3648 2 0.06027 2 0 0.47247 3 0
 3649 1 0.38582 3 180
 3650 1 0.38582 3 180
 3651 1 0.49976 2 180
 3652 1 2.79866 2 180
 3653 2 0.19990 2 180 0.14993 6 0
 3654 1 6.56956 2 180
 3655 1 6.56956 2 180
 3656 1 5.40782 2 0
 3657 2 0.19990 2 180 0.14993 6 0
 3658 1 1.11946 2 180
 3659 1 1.11946 2 180
 3660 1 0.99952 2 180
 3661 2 3.36879 1 0 0.79142 2 0
 3662 2 5.19732 1 180 2.20345 2 180
 3663 1 3.35390 1 180
 3664 1 0.00000 3 0
 3665 1 0.21989 2 180
 3666 1 1.08948 2 180
 3667 1 2.39885 2 180
 3668 1 2.99857 2 180
 3669 1 0.00000 2 180
 3670 1 0.99952 2 180
 3671 1 0.49976 2 180
 3672 1 1.73917 2 180
 3673 1 2.99857 2 180
 3674 1 2.99857 2 180
 3675 1 4.27796 2 180
 3676 1 4.79771 2 180
 3677 1 0.00000 2 180
 3678 1 2.99857 2 180
 3679 1 0.19990 3 0
 3680 1 0.14993 3 0
 3681 2 3.36879 1 0 0.79142 2 0
 3682 1 3.35390 1 180
 3683 2 5.19732 1 180 2.20345 2 180
 3684 1 0.14993 3 180
 3685 4 0.49976 1 0 2.19895 2 180 1.09947 3 0 0.59971 4 0
 3686 1 0.99952 2 180
 3687 1 2.24892 2 180
 3688 1 2.24892 2 180
 3689 1 2.24892 2 180
 3690 1 3.90513 2 180
 3691 1 2.24892 2 180
 3692 2 1.14945 2 180 0.30985 4 0
 3693 2 1.14945 2 180 0.30985 4 0
 3694 3 0.81961 2 180 0.28986 4 0 0.08996 6 0
 3695 1 0.24988 3 0
 3696 1 3.49833 2 180
 3697 1 3.39838 2 180
 3698 1 0.59971 2 180
 3699 1 10.99474 2 180
 3700 1 0.00000 2 180
 3701 1 10.99474 2 180
 3702 1 1.79914 2 180
 3703 1 1.99904 2 180
 3704 2 1.59924 1 0 6.84673 2 180
 3705 1 0.39981 2 180
 3706 1 2.29890 2 180
 3707 1 1.49928 2 180
 3708 1 1.45930 2 180
 3709 1 0.59971 2 180
 3710 1 2.39885 2 180
 3711 1 1.51927 2 180
 3712 1 2.99857 2 180
 3713 1 1.99904 2 180
 3714 1 0.19491 3 0
 3715 1 0.19491 3 0
 3716 1 0.19491 3 0
 3717 1 0.19491 3 0
 3718 1 0.19491 3 0
 3719 1 0.52155 3 180
 3720 2 4.00678 1 0 0.17951 3 180
 3721 1 0.52155 3 180
 3722 2 4.00678 1 0 0.17951 3 180
 3723 1 0.00000 3 0
 3724 1 0.00000 3 0
 3725 1 0.00000 3 0
 3726 1 0.00000 3 0
 3727 1 0.14993 3 0
 3728 1 8.49594 2 180
 3729 1 4.99761 2 180
 3730 1 0.99952 2 180
 3731 1 0.00000 2 180
 3732 1 8.49594 2 180
 3733 1 4.99761 2 180
 3734 1 8.49594 2 180
 3735 1 4.99761 2 180
 3736 1 2.59876 2 180
 3737 1 2.59876 2 180
 3738 1 0.60041 2 180
 3739 2 1.53866 1 0 2.91461 2 180
 3740 1 1.39933 2 180
 3741 1 1.39933 2 180
 3742 1 3.44835 2 180
 3743 1 1.07948 2 180
 3744 1 1.07948 2 180
 3745 1 1.49928 2 180
 3746 1 0.00000 3 180
 3747 1 0.00000 3 180
 3748 1 0.00000 3 180
 3749 1 0.00000 3 180
 3750 1 0.00000 3 180
 3751 1 0.00000 3 180
 3752 1 0.59212 3 0
 3753 1 0.00000 3 180
 3754 1 0.00000 3 180
 3755 1 0.00000 3 180
 3756 1 0.99952 2 180
 3757 1 1.99904 2 180
 3758 1 1.49928 2 180
 3759 1 2.99857 2 180
 3760 1 2.99857 2 180
 3761 1 0.24988 2 180
 3762 1 0.24988 2 180
 3763 1 1.99904 2 180
 3764 1 2.99857 2 180
 3765 1 5.49737 2 180
 3766 1 0.99952 2 180
 3767 1 0.99952 2 180
 3768 1 0.00000 2 180
 3769 1 2.59876 2 180
 3770 1 2.99857 2 180
 3771 1 0.00000 2 180
 3772 1 2.59876 2 180
 3773 1 0.00000 2 180
 3774 1 0.00000 2 180
 3775 1 0.00000 2 180
 3776 1 2.99857 2 180
 3777 1 0.01579 2 180
 3778 1 0.83430 2 180
 3779 1 0.99952 2 180
 3780 1 0.00000 2 180
 3781 1 0.29986 2 180
 3782 1 2.49881 2 180
 3783 1 1.35655 2 180
 3784 1 2.99857 2 180
 3785 1 2.59876 2 180
 3786 1 1.49928 2 180
 3787 1 1.09947 2 180
 3788 1 1.39933 2 180
 3789 1 0.34983 2 180
 3790 1 1.39933 2 180
 3791 1 2.99857 2 180
 3792 1 0.00000 3 0
 3793 1 0.00000 3 180
 3794 1 0.00000 3 180
 3795 1 3.79818 2 180
 3796 1 3.79818 2 180
 3797 1 2.99857 2 180
 3798 1 5.49737 2 180
 3799 1 2.09900 2 180
 3800 1 2.09900 2 180
 3801 1 3.99809 2 180
 3802 1 5.49737 2 180
 3803 1 3.89814 2 180
 3804 1 4.49785 2 180
 3805 1 0.16992 2 180
 3806 1 2.39885 2 180
 3807 1 2.39885 2 180
 3808 1 1.29938 3 0
 3809 1 1.99904 3 0
 3810 1 3.99809 2 180
 3811 1 0.00000 3 0
 3812 1 4.99761 2 180
 3813 1 3.99809 2 180
 3814 1 7.59637 2 180
 3815 1 3.79818 2 180
 3816 1 4.99761 2 180
 3817 1 5.49737 2 180
 3818 1 4.49785 2 180
 3819 1 8.99570 2 180
 3820 1 0.00000 2 180
 3821 1 0.43389 2 180
 3822 1 0.43389 2 180
 3823 1 1.99904 2 180
 3824 1 5.49737 2 180
 3825 1 5.19752 2 180
 3826 1 11.39455 2 180
 3827 1 4.29795 2 180
 3828 1 3.29842 2 180
 3829 1 3.79818 2 180
 3830 1 2.99857 2 180
 3831 1 7.45114 2 180
 3832 1 5.59732 2 180
 3833 1 0.00000 2 180
 3834 1 0.00000 2 180
 3835 1 0.00000 2 180
 3836 1 1.49928 2 180
 3837 1 1.69919 2 180
 3838 1 1.08638 2 180
 3839 1 0.99952 2 180
 3840 1 0.29986 2 180
 3841 1 0.00000 2 180
 3842 1 0.00000 3 0
 3843 1 3.79818 2 180
 3844 1 3.99809 2 180
 3845 1 5.49737 2 180
 3846 1 2.99857 2 180
 3847 1 1.99904 2 180
 3848 1 6.49689 2 180
 3849 1 2.27621 2 180
 3850 1 5.19752 2 180
 3851 1 0.49976 2 180
 3852 1 2.79866 2 180
 3853 2 0.19990 2 180 0.14993 6 0
 3854 1 6.49689 2 180
 3855 3 0.63969 1 180 1.11946 2 180 0.32984 4 0
 3856 3 0.63969 1 180 1.11946 2 180 0.32984 4 0
 3857 2 0.39981 1 180 0.79962 3 0
 3858 1 0.49976 3 0
 3859 1 0.19491 3 0
 3860 1 0.15992 3 0
 3861 1 0.15992 3 0
 3862 3 0.59971 1 0 0.19990 2 180 0.29986 3 0
 3863 1 0.12494 3 0
 3864 1 0.19990 3 0
 3865 1 0.19491 3 0
 3866 1 0.29986 3 180
 3867 1 0.14993 3 180
 3868 1 8.99570 2 180
 3869 2 1.49928 1 180 14.99283 2 180
 3870 1 2.99857 2 180
 3871 2 1.49928 1 180 14.99283 2 180
 3872 1 2.99857 2 180
 3873 1 2.39885 2 180
 3874 1 0.00000 2 180
 3875 1 3.69823 2 180
 3876 1 2.49881 2 180
 3877 1 0.00000 2 180
 3878 1 0.79962 3 0
 3879 1 0.15992 3 0
 3880 1 0.15992 3 0
 3881 3 0.50976 1 0 0.66968 2 0 0.25988 3 0
 3882 3 1.54926 1 0 1.16944 2 0 1.06949 3 0
 3883 1 0.19491 3 0
 3884 2 0.79962 1 180 0.19990 3 180
 3885 2 0.15992 1 180 0.38981 2 0
 3886 1 0.19491 3 0
 3887 1 0.15992 3 0
 3888 1 0.19990 3 0
 3889 1 0.19990 3 0
 3890 2 0.24988 1 180 1.23941 2 0
 3891 1 0.18991 3 0
 3892 1 0.15992 3 0
 3893 1 0.19990 3 180
 3894 1 0.19491 3 0
 3895 1 0.00000 3 0
 3896 1 0.19491 3 0
 3897 1 0.13993 3 0
 3898 3 1.99904 3 180 0.39981 5 0 0.79962 6 0
 3899 1 0.19990 3 0
 3900 1 0.19491 3 180
 3901 1 0.13993 3 0
 3902 1 0.00000 3 0
 3903 1 0.19491 3 0
 3904 3 3.19847 2 0 1.89909 3 0 0.99952 4 180
 3905 3 3.19847 2 0 1.89909 3 0 0.99952 4 180
 3906 1 0.19990 3 0
 3907 3 2.64873 1 180 0.00000 2 0 0.12994 3 180
 3908 1 0.19990 3 0
 3909 1 0.19990 3 0
 3910 1 0.00000 3 0
 3911 1 0.00000 3 0
 3912 1 0.00000 3 0
 3913 1 0.19491 3 0
 3914 1 0.00000 3 0
 3915 1 0.19491 3 0
 3916 2 0.78782 1 180 6.92039 2 180
 3917 2 0.78782 1 180 6.92039 2 180
 3918 2 0.78782 1 180 6.92039 2 180
 3919 1 5.25939 2 180
 3920 2 1.52857 1 0 2.47112 2 180
 3921 1 2.49941 2 180
 3922 2 4.18130 1 180 2.35068 2 180
 3923 2 0.78782 1 180 6.92039 2 180
 3924 2 0.78782 1 180 6.92039 2 180
 3925 2 0.78782 1 180 6.92039 2 180
 3926 1 5.25939 2 180
 3927 2 1.52857 1 0 2.47112 2 180
 3928 1 2.49941 2 180
 3929 2 0.55973 1 180 6.99666 2 180
 3930 1 5.19382 2 180
 3931 1 0.00000 3 0
 3932 1 0.00000 3 0
 3933 2 0.55973 1 180 6.99666 2 180
 3934 1 5.19382 2 180
 3935 1 0.00000 3 0
 3936 1 0.00000 3 0
 3937 1 0.00000 2 180
 3938 1 0.00000 2 180
 3939 1 2.99857 2 180
 3940 1 2.99857 2 180
 3941 1 0.00000 2 180
 3942 1 3.09852 2 180
 3943 1 4.99761 2 180
 3944 1 2.39885 2 180
 3945 1 2.39885 2 180
 3946 1 1.14945 2 180
 3947 1 0.12994 2 180
 3948 1 3.09852 2 180
 3949 1 2.79866 2 180
 3950 1 8.43597 2 180
 3951 1 2.06901 2 180
 3952 1 2.99857 2 180
 3953 1 2.49881 2 180
 3954 1 0.99952 2 180
 3955 1 0.19990 3 0
 3956 1 0.19990 3 0
 3957 1 0.19990 3 0
 3958 1 0.19990 3 0
 3959 1 0.19990 3 0
 3960 1 0.19990 3 0
 3961 1 0.19990 3 0
 3962 1 0.03998 3 0
 3963 1 0.19990 3 0
 3964 1 0.19990 3 0
 3965 1 0.44978 3 0
 3966 1 0.19990 3 0
 3967 1 0.19990 3 0
 3968 1 0.19990 3 0
 3969 1 0.19990 3 0
 3970 1 0.19990 3 0
 3971 1 0.19990 1 180
 3972 2 1.54636 1 0 1.16564 2 180
 3973 1 0.19990 1 180
 3974 1 0.19990 1 180
 3975 1 0.00000 1 0
 3976 3 0.34983 1 0 0.36982 2 0 0.01000 3 180
 3977 2 1.58104 1 180 0.67977 3 0
 3978 2 1.58104 1 180 0.67977 3 0
 3979 1 0.19990 3 0
 3980 1 0.19990 3 0
 3981 1 0.19990 3 0
 3982 1 0.19990 3 0
 3983 1 0.03998 3 0
 3984 1 0.19990 3 0
 3985 1 0.19990 3 0
 3986 1 0.19990 3 0
 3987 1 0.19990 3 0
 3988 1 0.19990 3 0
 3989 1 0.19990 3 0
 3990 1 0.19990 3 0
 3991 3 2.06211 1 180 0.84620 2 180 0.36742 3 0
 3992 1 0.09995 3 0
 3993 1 0.19990 3 0
 3994 1 0.19491 3 0
 3995 1 0.19491 3 0
 3996 1 0.19491 3 0
 3997 1 0.37982 3 0
 3998 1 0.19990 3 0
 3999 1 0.19491 3 0
 4000 1 0.15992 3 0
 4001 3 0.89427 1 180 0.42440 2 180 0.48397 3 0
 4002 3 0.55334 1 180 0.55803 2 0 0.20450 3 0
 4003 1 0.00000 1 180
 4004 1 0.19990 1 180
 4005 1 3.10642 1 0
 4006 1 0.19990 1 180
 4007 1 0.00000 1 0
 4008 2 1.20253 2 0 0.80362 3 0
 4009 3 0.55973 1 180 0.54854 2 0 0.74574 3 0
 4010 1 0.19990 3 0
 4011 1 0.09995 3 0
 4012 1 0.13993 3 0
 4013 1 0.13993 3 0
 4014 1 0.79962 3 0
 4015 1 0.09995 3 0
 4016 3 0.02919 1 0 1.36565 2 0 0.51405 3 0
 4017 1 0.13993 3 0
 4018 1 0.13993 3 0
 4019 1 0.14023 3 0
 4020 1 0.13993 3 0
 4021 1 0.79962 3 0
 4022 1 0.09995 3 0
 4023 1 0.06547 3 180
 4024 1 0.06547 3 180
 4025 1 0.37402 3 180
 4026 1 0.07996 3 0
 4027 1 0.07996 3 0
 4028 2 1.85631 1 180 0.36652 3 180
 4029 2 2.09600 1 0 0.82311 2 0
 4030 1 0.00000 3 0
 4031 1 0.00000 1 0
 4032 1 1.79914 1 0
 4033 1 1.79914 1 0
 4034 1 1.79914 1 0
 4035 1 1.79914 1 0
 4036 1 0.19990 1 180
 4037 1 0.00000 1 0
 4038 1 0.79962 3 0
 4039 1 0.79962 3 0
 4040 1 0.79962 3 0
 4041 1 0.00000 3 180
 4042 1 0.00000 3 180
 4043 2 0.56023 1 180 1.99904 2 180
 4044 1 3.21067 2 180
 4045 4 2.05602 1 180 1.54526 2 180 0.41390 3 180 0.01010 6 180
 4046 2 0.56023 1 180 1.99904 2 180
 4047 1 3.21067 2 180
 4048 4 2.05602 1 180 1.54526 2 180 0.41390 3 180 0.01010 6 180
 4049 2 0.55973 1 180 0.20310 2 180
 4050 1 1.68399 2 180
 4051 2 0.55973 1 180 6.99666 2 180
 4052 1 1.08398 2 180
 4053 3 0.76563 1 180 3.39947 2 0 0.99203 3 0
 4054 1 1.01491 2 180
 4055 1 3.19847 2 180
 4056 3 0.91036 1 0 0.66858 2 0 1.74467 3 0
 4057 1 0.00000 3 0
 4058 3 0.91036 1 0 0.66858 2 0 1.74467 3 0
 4059 1 11.17256 2 180
 4060 2 0.55973 1 180 0.20310 2 180
 4061 1 1.68399 2 180
 4062 2 0.55973 1 180 6.99666 2 180
 4063 1 1.08398 2 180
 4064 1 3.19847 2 180
 4065 3 0.91036 1 0 0.66858 2 0 1.74467 3 0
 4066 1 0.00000 3 0
 4067 1 11.17256 2 180
 4068 1 0.02189 2 180
 4069 1 1.70818 2 180
 4070 1 0.00000 2 180
 4071 1 0.01969 2 180
 4072 1 0.03838 2 180
 4073 1 3.09852 2 180
 4074 1 4.99761 2 180
 4075 1 1.29218 2 180
 4076 1 2.39885 2 180
 4077 1 2.39885 2 180
 4078 3 0.34983 1 0 0.36982 2 0 0.01000 3 180
 4079 1 0.19491 3 0
 4080 5 0.20990 1 180 0.38981 2 0 0.34983 3 180 0.10995 4 0 0.08996 6 180
 4081 5 0.20990 1 180 0.38981 2 0 0.34983 3 180 0.10995 4 0 0.08996 6 180
 4082 1 0.19491 3 0
 4083 1 0.15992 3 0
 4084 2 0.15842 1 180 0.72785 3 0
 4085 2 0.65219 1 180 0.68777 3 0
 4086 1 0.19990 3 0
 4087 1 2.85514 2 180
 4088 1 2.85514 2 180
 4089 1 2.85514 2 180
 4090 1 3.08043 2 180
 4091 3 0.51885 2 180 0.35923 3 180 0.46778 6 0
 4092 3 3.42656 2 0 1.53926 3 0 0.04698 6 180
 4093 1 0.59971 1 0
 4094 1 2.85514 2 180
 4095 1 2.85514 2 180
 4096 1 2.85514 2 180
 4097 1 3.08043 2 180
 4098 3 0.51885 2 180 0.35923 3 180 0.46778 6 0
 4099 3 3.42656 2 0 1.53926 3 0 0.04698 6 180
 4100 2 1.09947 2 180 0.29986 4 0
 4101 2 1.09947 2 180 0.29986 4 0
 4102 1 0.99952 2 180
 4103 1 0.00000 2 180
 4104 1 0.99952 2 180
 4105 1 1.61923 2 180
 4106 3 0.00040 1 0 1.76766 2 0 1.03171 3 0
 4107 1 0.00000 1 0
 4108 1 0.00000 1 0
 4109 1 0.00000 1 0
 4110 1 0.00000 1 0
 4111 1 0.00000 1 0
 4112 1 0.59971 1 0
 4113 1 0.59971 1 0
 4114 2 2.56717 1 0 0.45598 3 0
 4115 1 1.27089 1 0
 4116 1 0.00000 1 0
 4117 1 0.00000 1 0
 4118 1 0.00000 1 0
 4119 1 0.00000 1 0
 4120 1 0.00000 1 0
 4121 1 0.59971 1 0
 4122 1 0.00000 1 0
 4123 1 0.00000 1 0
 4124 1 0.00000 1 0
 4125 1 0.00000 1 0
 4126 1 0.58512 1 0
 4127 1 0.59971 1 0
 4128 1 0.59971 1 0
 4129 1 0.59971 1 0
 4130 3 1.72697 1 0 1.45700 2 0 3.02805 3 0
 4131 1 0.00000 1 0
 4132 1 0.00000 3 0
 4133 1 0.39981 1 0
 4134 1 0.00000 3 0
 4135 1 0.00000 3 0
 4136 2 0.39981 1 0 0.59971 2 0
 4137 2 0.29986 1 0 0.29986 4 180
 4138 1 0.18591 1 0
 4139 2 0.33164 1 0 0.04158 2 0
 4140 2 0.39981 1 0 0.59971 2 0
 4141 2 0.29986 1 0 -0.29986 4 0
 4142 3 0.59222 1 180 2.87802 2 180 0.41830 3 180
 4143 2 0.39981 1 180 0.59971 2 0
 4144 2 0.39981 1 0 0.59971 2 0
 4145 1 0.29986 1 0
 4146 2 0.39981 1 180 0.59971 2 0
 4147 1 1.87910 2 180
 4148 2 1.42932 2 180 0.17991 4 0
 4149 1 1.29938 2 180
 4150 1 1.29938 2 180
 4151 1 0.19990 2 180
 4152 1 1.99904 2 180
 4153 1 3.19847 2 180
 4154 2 1.59924 2 180 0.69967 3 0
 4155 3 1.99904 1 180 1.09947 2 180 0.69967 3 0
 4156 1 0.79962 1 0
 4157 1 0.79962 1 0
 4158 2 1.59924 1 0 2.49881 2 180
 4159 1 1.49928 2 180
 4160 1 1.49928 2 180
 4161 3 0.14993 1 180 2.19895 2 180 0.09995 3 180
 4162 3 0.24988 1 0 1.84912 2 180 0.11994 3 180
 4163 1 2.39885 2 180
 4164 1 2.39885 2 180
 4165 1 2.39885 2 180
 4166 1 2.39885 2 180
 4167 1 3.09852 2 180
 4168 1 2.39885 2 180
 4169 1 3.09852 2 180
 4170 1 0.00000 2 180
 4171 1 3.09852 2 180
 4172 1 1.99904 2 180
 4173 1 1.99904 2 180
 4174 1 1.79914 1 180
 4175 1 0.19990 3 0
 4176 1 0.19990 3 0
 4177 1 0.19990 3 0
 4178 1 0.19990 3 0
 4179 1 0.19990 3 0
 4180 1 0.19990 3 0
 4181 1 0.19990 3 0
 4182 1 0.19990 3 0
 4183 1 0.19990 3 0
 4184 1 0.19990 3 0
 4185 1 0.19990 3 0
 4186 1 0.19990 3 0
 4187 1 0.19491 3 0
 4188 1 0.19990 3 0
 4189 1 0.19990 3 0
 4190 1 0.59971 1 0
 4191 1 0.59971 1 0
 4192 1 0.19990 3 0
 4193 3 0.94955 1 180 1.32936 2 0 0.07996 3 180
 4194 1 0.19491 3 0
 4195 1 0.19491 3 0
 4196 1 0.59971 1 0
 4197 1 0.59971 1 0
 4198 1 0.19990 3 0
 4199 3 0.13673 1 180 0.31845 2 0 0.39971 3 0
 4200 1 3.44615 3 0
 4201 1 0.13993 3 0
 4202 1 0.59971 1 0
 4203 1 0.59971 1 0
 4204 1 2.49881 2 180
 4205 1 2.49881 2 180
 4206 1 2.49881 2 180
 4207 1 2.49881 2 180
 4208 1 2.43883 2 180
 4209 1 2.39885 2 180
 4210 1 3.99809 2 180
 4211 1 4.69775 2 180
 4212 1 0.11994 2 180
 4213 1 0.49976 2 180
 4214 1 3.09852 2 180
 4215 1 3.79818 2 180
 4216 1 3.59828 2 180
 4217 1 0.15992 3 0
 4218 1 0.17991 3 0
 4219 1 0.00000 3 0
 4220 1 0.19491 3 0
 4221 1 0.00000 3 0
 4222 1 2.49881 2 180
 4223 1 2.49881 2 180
 4224 1 2.49881 2 180
 4225 1 2.49881 2 180
 4226 1 5.19752 2 180
 4227 2 0.19990 2 180 0.14993 6 0
 4228 1 2.57877 2 180
 4229 1 3.56829 2 180
 4230 1 2.39885 2 180
 4231 1 2.39885 2 180
 4232 1 3.99809 2 180
 4233 1 1.16944 2 180
 4234 1 4.75773 2 180
 4235 1 1.27939 2 180
 4236 1 3.04854 2 180
 4237 1 3.09852 2 180
 4238 1 0.00000 2 180
 4239 1 3.09852 2 180
 4240 1 3.99809 2 180
 4241 1 3.09852 2 180
 4242 1 3.49833 2 180
 4243 1 0.49976 2 180
 4244 1 3.49833 2 180
 4245 1 3.09852 2 180
 4246 1 3.09852 2 180
 4247 1 3.09852 2 180
 4248 1 0.46678 3 0
 4249 4 0.76773 1 0 0.40441 2 0 0.56103 3 0 0.03988 4 0
 4250 4 0.76773 1 0 0.40441 2 0 0.56103 3 0 0.03988 4 0
 4251 1 0.19491 3 0
 4252 1 0.15992 3 0
 4253 3 2.49881 1 180 1.49928 2 0 0.49976 3 0
 4254 3 1.39933 1 180 0.49976 2 0 0.09995 3 0
 4255 1 0.09995 3 0
 4256 2 1.69919 2 0 0.29986 3 0
 4257 1 0.00000 3 0
 4258 1 0.00000 3 0
 4259 1 0.19491 3 0
 4260 1 0.29986 3 180
 4261 1 0.14993 3 180
 4262 2 0.79962 4 180 0.49976 6 0
 4263 2 0.79962 4 180 0.49976 6 0
 4264 1 0.19491 3 0
 4265 2 1.50108 1 180 7.36998 2 180
 4266 1 2.99857 2 180
 4267 1 1.39613 2 180
 4268 1 1.48219 2 180
 4269 2 1.50108 1 180 7.36998 2 180
 4270 1 2.99857 2 180
 4271 1 1.39613 2 180
 4272 1 1.48219 2 180
 4273 1 1.02451 2 180
 4274 2 3.36779 1 180 2.95319 2 180
 4275 2 0.92956 2 180 0.11994 3 180
 4276 1 0.04998 6 180
 4277 1 0.04998 6 180
 4278 1 0.00000 1 0
 4279 1 0.00000 1 0
 4280 1 0.00000 6 180
 4281 1 0.45978 2 180
 4282 1 0.04998 6 180
 4283 2 0.92956 2 180 0.11994 3 180
 4284 2 0.92956 2 180 0.11994 3 180
 4285 1 0.00000 6 180
 4286 1 0.00000 1 0
 4287 1 0.00000 6 180
 4288 1 0.00000 6 180
 4289 2 0.16992 1 180 0.45978 2 180
 4290 1 0.00000 6 180
 4291 1 0.00000 6 180
 4292 1 6.12127 2 180
 4293 1 3.50962 2 180
 4294 1 0.10075 2 180
 4295 1 0.10075 2 180
 4296 1 0.00030 2 180
 4297 1 3.37918 2 180
 4298 1 3.56809 2 180
 4299 1 3.11561 2 180
 4300 1 2.79616 2 180
 4301 1 2.39885 2 180
 4302 1 2.39885 2 180
 4303 1 3.09852 2 180
 4304 1 2.39885 2 180
 4305 1 3.09852 2 180
 4306 1 4.08765 2 180
 4307 1 1.43641 2 180
 4308 1 3.09852 2 180
 4309 1 0.99952 2 180
 4310 1 1.90849 2 180
 4311 1 2.39885 2 180
 4312 1 3.09852 2 180
 4313 1 2.69871 2 180
 4314 1 2.69871 2 180
 4315 1 0.00000 2 180
 4316 1 2.99857 2 180
 4317 1 0.79962 3 0
 4318 2 0.80731 1 180 0.47627 3 0
 4319 1 0.19491 3 0
 4320 1 0.13993 3 0
 4321 3 0.40980 1 180 0.88957 2 0 0.04998 3 0
 4322 1 0.19990 3 0
 4323 1 0.19990 3 0
 4324 1 0.19491 3 0
 4325 1 0.19990 3 0
 4326 1 0.19990 3 0
 4327 1 0.19491 3 0
 4328 1 0.19990 3 0
 4329 1 0.19990 3 0
 4330 2 1.79914 1 180 0.34983 3 0
 4331 3 1.99904 3 180 0.39981 5 0 0.79962 6 0
 4332 4 0.49976 1 180 0.69967 2 0 0.39981 3 0 0.39981 5 0
 4333 4 0.49976 1 180 0.69967 2 0 0.39981 3 0 0.39981 5 0
 4334 4 0.49976 1 180 0.69967 2 0 0.39981 3 0 0.39981 5 0
 4335 1 0.13993 3 0
 4336 1 0.19990 3 0
 4337 1 0.19990 3 0
 4338 1 0.31125 3 180
 4339 1 0.19990 3 0
 4340 1 0.19990 3 0
 4341 2 0.35283 2 180 0.25668 3 0
 4342 1 0.19491 3 180
 4343 2 2.88802 1 180 1.16974 4 0
 4344 1 0.19491 3 0
 4345 1 0.19491 3 0
 4346 1 0.19491 3 0
 4347 1 0.19491 3 0
 4348 1 0.19990 3 0
 4349 1 0.15792 3 0
 4350 1 0.15792 3 0
 4351 1 0.44978 2 0
 4352 3 0.64849 1 180 1.28219 2 0 0.35203 3 0
 4353 3 1.83302 1 0 1.05440 2 0 0.27797 3 0
 4354 3 0.46988 1 180 0.35353 2 180 1.69979 3 180
 4355 2 0.62680 1 180 1.38994 3 0
 4356 1 0.19990 3 0
 4357 3 2.62844 1 180 0.33184 2 180 0.23169 3 0
 4358 2 1.73977 1 180 0.11954 3 0
 4359 1 0.19491 3 0
 4360 2 4.29795 1 180 -0.39981 3 180
 4361 1 0.69967 1 180
 4362 1 0.19491 3 0
 4363 1 0.19491 3 0
 4364 1 0.15992 3 0
 4365 4 2.49881 1 180 0.39981 2 0 0.79962 3 180 0.19990 4 180
 4366 1 0.19990 3 180
 4367 1 3.39838 1 180
 4368 1 0.19491 3 0
 4369 3 0.05238 1 0 1.32087 2 0 0.61770 3 0
 4370 4 0.49976 1 180 0.69967 2 0 0.39981 3 0 0.39981 5 0
 4371 1 0.19491 3 180
 4372 1 0.05607 3 0
 4373 1 2.97538 3 0
 4374 1 0.05607 3 0
 4375 1 0.18591 1 0
 4376 1 0.00000 3 0
 4377 4 0.19990 3 0 0.59971 4 180 0.29986 5 0 0.49976 6 0
 4378 1 0.73655 3 180
 4379 1 0.19491 3 0
 4380 3 1.99904 3 180 0.39981 5 0 0.79962 6 0
 4381 4 0.49976 1 180 0.69967 2 0 0.39981 3 0 0.39981 5 0
 4382 1 0.13993 3 0
 4383 1 1.89909 2 0
 4384 1 0.00000 3 0
 4385 4 0.19990 3 0 0.59971 4 180 0.29986 5 0 0.49976 6 0
 4386 1 0.19491 3 180
 4387 1 0.13993 3 0
 4388 2 0.59971 1 0 0.69967 3 0
 4389 1 0.00000 3 0
 4390 1 0.00000 3 0
 4391 4 0.19990 3 0 0.59971 4 180 0.29986 5 0 0.49976 6 0
 4392 1 0.19491 3 0
 4393 3 0.44978 2 0 0.79962 3 180 0.19990 4 0
 4394 3 0.44978 2 0 0.79962 3 180 0.19990 4 0
 4395 1 0.44978 2 0
 4396 1 0.44978 2 0
 4397 1 0.00000 4 0
 4398 1 0.14993 3 0
 4399 4 0.04768 1 0 3.72222 2 0 0.90817 3 0 0.18901 6 180
 4400 1 0.97303 2 0
 4401 1 2.14897 2 180
 4402 1 2.42834 2 180
 4403 1 0.36642 2 180
 4404 1 0.40081 2 180
 4405 1 2.14897 2 180
 4406 1 2.42834 2 180
 4407 1 0.36642 2 180
 4408 1 0.40081 2 180
 4409 1 0.00410 2 180
 4410 1 0.04878 2 180
 4411 1 2.39885 2 180
 4412 1 0.27987 3 0
 4413 1 0.15992 3 0
 4414 1 1.99904 2 180
 4415 1 6.99666 2 180
 4416 1 1.99904 2 180
 4417 1 6.99666 2 180
 4418 1 2.39885 2 180
 4419 1 4.89766 2 180
 4420 1 1.99904 2 180
 4421 1 8.99570 2 180
 4422 1 1.99904 2 180
 4423 2 0.55973 1 180 6.99666 2 180
 4424 1 4.19799 2 180
 4425 2 0.67068 1 0 2.24703 3 0
 4426 1 0.00000 3 0
 4427 1 0.34543 3 180
 4428 1 4.93464 2 180
 4429 1 4.89366 2 180
 4430 1 4.42429 2 180
 4431 2 0.55973 1 180 6.99666 2 180
 4432 1 4.19799 2 180
 4433 2 0.67068 1 0 2.24703 3 0
 4434 1 0.00000 3 0
 4435 1 0.34543 3 180
 4436 1 4.93464 2 180
 4437 1 4.89366 2 180
 4438 1 4.42429 2 180
 4439 1 1.58424 2 180
 4440 3 0.50856 1 180 0.12034 2 0 0.05707 3 0
 4441 1 0.00630 3 180
 4442 1 3.09852 2 180
 4443 1 2.39885 2 180
 4444 1 0.99952 2 180
 4445 1 2.39885 2 180
 4446 1 2.39885 2 180
 4447 1 2.39885 2 180
 4448 1 0.19990 3 0
 4449 1 0.19990 3 0
 4450 3 0.40491 1 180 2.26532 2 0 0.27837 3 180
 4451 1 0.81961 3 180
 4452 3 0.84670 1 180 1.11017 2 180 1.14995 3 0
 4453 1 0.19990 3 0
 4454 1 0.19990 3 0
 4455 1 0.19990 3 0
 4456 1 0.19990 3 0
 4457 1 0.19990 3 0
 4458 1 0.19990 3 0
 4459 1 0.19990 3 0
 4460 1 0.19990 3 0
 4461 1 0.03998 3 0
 4462 1 0.19990 3 0
 4463 1 0.19990 3 0
 4464 1 0.19990 3 0
 4465 3 1.02061 1 0 0.40131 2 180 0.21420 3 0
 4466 1 0.19990 3 0
 4467 1 0.19990 3 0
 4468 1 0.19990 3 0
 4469 1 0.19990 3 0
 4470 1 0.15992 3 0
 4471 1 0.00000 1 180
 4472 1 0.19990 1 180
 4473 1 0.19990 1 180
 4474 1 0.00000 1 0
 4475 1 0.19990 3 0
 4476 1 1.13196 3 0
 4477 3 0.29986 1 0 0.29986 2 180 0.39981 3 0
 4478 3 1.92618 1 180 1.28369 2 180 2.48071 3 0
 4479 4 2.28111 1 180 0.60221 2 180 0.29006 3 0 0.21340 4 180
 4480 1 0.19990 3 0
 4481 3 0.11994 1 180 0.35983 2 180 0.40980 3 0
 4482 1 0.19990 3 0
 4483 1 0.19990 3 0
 4484 1 0.19990 3 0
 4485 1 0.03998 3 0
 4486 1 0.19990 3 0
 4487 1 0.19990 3 0
 4488 1 0.19990 3 0
 4489 1 0.19990 3 0
 4490 2 0.22649 1 180 0.13324 3 0
 4491 1 0.19990 3 0
 4492 1 0.15992 3 0
 4493 1 0.15463 4 0
 4494 1 4.60050 1 180
 4495 1 0.40611 3 0
 4496 1 0.09995 3 0
 4497 1 0.03998 3 0
 4498 1 0.19491 3 0
 4499 1 0.19491 3 0
 4500 4 0.06447 2 0 0.14968 3 180 0.09453 4 0 0.11246 5 0
 4501 1 0.19491 3 0
 4502 1 0.15992 3 0
 4503 1 0.19990 1 180
 4504 1 0.19990 1 180
 4505 1 0.00000 1 0
 4506 2 1.09947 1 180 0.19990 3 180
 4507 1 1.30937 1 180
 4508 1 0.19990 3 0
 4509 3 0.67798 1 180 1.74227 2 0 1.09198 3 0
 4510 3 4.10054 1 180 1.17654 2 180 1.03511 3 0
 4511 3 4.10054 1 180 1.17654 2 180 1.03511 3 0
 4512 1 0.19990 3 0
 4513 2 0.99952 1 180 0.69967 2 0
 4514 2 0.99952 1 180 0.69967 2 0
 4515 1 0.03998 3 180
 4516 1 0.09995 3 0
 4517 1 0.13993 3 0
 4518 1 0.13993 3 0
 4519 1 0.79962 3 0
 4520 1 0.09995 3 0
 4521 1 0.07996 3 0
 4522 1 0.07996 3 0
 4523 2 0.55973 1 180 6.99666 2 180
 4524 1 3.19847 2 180
 4525 2 0.55973 1 180 6.99666 2 180
 4526 1 3.19847 2 180
 4527 1 3.09852 2 180
 4528 1 0.99952 2 180
 4529 1 2.39885 2 180
 4530 1 2.39885 2 180
 4531 1 2.49881 2 180
 4532 1 2.49881 2 180
 4533 1 2.79866 2 180
 4534 1 3.59828 2 180
 4535 1 1.49928 2 180
 4536 1 0.19990 3 0
 4537 2 1.99904 1 180 0.79962 2 0
 4538 1 0.19990 3 0
 4539 1 0.19990 3 0
 4540 1 0.19990 3 0
 4541 1 0.19990 1 180
 4542 1 0.00000 1 0
 4543 1 0.19990 3 0
 4544 1 0.15992 3 0
 4545 3 0.66418 1 0 3.61557 2 0 1.30747 3 0
 4546 3 1.00222 1 180 3.29403 2 180 1.60853 3 0
 4547 1 0.19990 3 0
 4548 1 0.14403 3 180
 4549 1 0.17422 3 180
 4550 1 0.02969 2 0
 4551 1 5.26798 2 180
 4552 1 3.49833 2 180
 4553 1 5.26798 2 180
 4554 1 3.49833 2 180
 4555 1 1.99904 2 180
 4556 2 1.59924 1 0 3.99809 2 180
 4557 1 0.99952 2 180
 4558 1 0.00690 2 180
 4559 1 14.99283 2 180
 4560 1 1.99904 2 180
 4561 1 8.99570 2 180
 4562 1 4.29795 2 180
 4563 1 4.29795 2 180
 4564 1 4.29795 2 180
 4565 1 3.99809 2 180
 4566 1 3.99809 2 180
 4567 1 3.99809 2 180
 4568 1 15.99236 2 180
 4569 1 8.49594 2 180
 4570 1 8.49594 2 180
 4571 1 1.59924 2 180
 4572 1 0.99952 2 180
 4573 1 1.49928 2 180
 4574 1 2.99857 2 180
 4575 1 8.49594 2 180
 4576 1 4.14802 2 180
 4577 1 3.79818 2 180
 4578 1 1.19943 2 180
 4579 1 0.40980 1 180
 4580 1 14.99283 2 180
 4581 1 2.09900 2 180
 4582 1 1.89909 2 180
 4583 1 2.99857 2 180
 4584 1 2.99857 2 180
 4585 1 2.99857 2 180
 4586 1 3.99809 2 180
 4587 1 11.99427 2 180
 4588 1 1.99904 2 180
 4589 1 3.99809 2 180
 4590 3 0.19990 1 0 0.26987 2 0 0.00000 3 0
 4591 3 0.12554 1 0 0.23739 2 180 0.06287 3 180
 4592 1 0.00000 3 0
 4593 2 2.12788 1 0 0.38342 2 0
 4594 2 0.06667 1 0 0.00470 2 0
 4595 1 0.00000 3 0
 4596 3 0.02999 1 0 0.54974 2 0 0.38981 3 180
 4597 3 0.19990 1 0 0.26987 2 0 0.00000 3 0
 4598 3 0.19990 1 0 0.26987 2 0 0.00000 3 0
 4599 2 0.19990 1 0 0.26987 2 0
 4600 3 0.19990 1 0 0.26987 2 0 0.00000 3 0
 4601 2 0.19990 1 0 0.26987 2 0
 4602 1 0.40980 2 180
 4603 1 0.40980 2 180
 4604 2 1.43991 1 180 0.12414 2 180
 4605 1 0.00000 3 0
 4606 1 0.59971 2 0
 4607 2 4.79771 1 0 0.19990 2 0
 4608 1 0.00000 3 0
 4609 1 0.00000 3 0
 4610 1 0.01529 3 0
 4611 1 0.69967 3 180
 4612 1 1.79734 3 180
 4613 1 0.34983 3 180
 4614 1 0.34983 3 180
 4615 1 3.58968 2 180
 4616 2 1.69919 2 0 3.09852 3 0
 4617 1 0.69967 3 180
 4618 1 2.09900 3 180
 4619 1 0.95474 3 180
 4620 1 0.00000 3 0
 4621 1 2.04902 3 180
 4622 1 3.49833 3 180
 4623 1 3.49833 3 180
 4624 1 1.49928 3 180
 4625 1 0.04998 3 180
 4626 1 0.04998 3 180
 4627 1 0.49976 3 180
 4628 1 3.59828 2 180
 4629 1 0.25988 2 180
 4630 1 0.69967 3 180
 4631 3 0.27987 1 180 0.97953 2 180 1.74916 3 180
 4632 1 0.00000 3 0
 4633 1 0.34983 3 180
 4634 1 0.34983 3 180
 4635 1 2.09900 3 180
 4636 1 2.09900 3 180
 4637 1 0.00000 3 0
 4638 1 2.79866 2 180
 4639 1 0.89957 3 180
 4640 1 0.00000 3 0
 4641 1 5.39742 2 180
 4642 1 13.99331 2 180
 4643 1 11.49451 2 180
 4644 1 8.49594 2 180
 4645 1 13.99331 2 180
 4646 1 13.99331 2 180
 4647 1 0.00000 2 180
 4648 1 9.99522 2 180
 4649 1 13.99331 2 180
 4650 1 0.00000 1 0
 4651 1 0.19990 2 180
 4652 1 4.99761 2 180
 4653 1 0.00000 1 0
 4654 1 10.99474 2 180
 4655 1 0.00000 1 0
 4656 1 9.99522 2 180
 4657 1 0.52415 2 180
 4658 1 0.28227 1 0
 4659 1 0.99952 2 180
 4660 1 0.00000 1 0
 4661 1 10.99474 2 180
 4662 1 11.99427 2 180
 4663 1 1.70279 2 180
 4664 1 1.39933 2 180
 4665 1 9.99522 2 180
 4666 1 0.19990 2 180
 4667 1 0.19990 2 180
 4668 1 2.99857 2 180
 4669 1 2.99857 2 180
 4670 1 8.99570 2 180
 4671 1 7.99618 2 180
 4672 1 0.00000 3 0
 4673 1 0.29986 3 0
 4674 1 0.29986 3 180
 4675 1 7.49642 2 180
 4676 1 8.49594 2 180
 4677 1 8.49594 2 180
 4678 1 8.49594 2 180
 4679 2 0.22529 1 180 0.00000 2 180
 4680 2 1.23041 2 180 2.29290 3 180
 4681 1 4.33793 2 180
 4682 1 7.51181 2 180
 4683 1 8.49594 2 180
 4684 1 8.49594 2 180
 4685 1 8.49594 2 180
 4686 1 8.99570 2 180
 4687 2 3.25844 1 180 0.23989 2 180
 4688 1 0.00000 6 0
 4689 3 1.73917 1 0 0.14993 2 0 0.76963 3 180
 4690 3 2.03903 1 0 0.43979 2 0 0.12994 3 180
 4691 2 2.82905 1 0 0.93335 2 180
 4692 2 0.87038 1 0 0.13544 2 180
 4693 2 2.82905 1 0 0.93335 2 180
 4694 2 0.87038 1 0 0.13544 2 180
 4695 3 0.19990 1 0 0.26987 2 0 0.00000 3 0
 4696 1 0.00000 3 0
 4697 1 5.49737 2 180
 4698 1 11.99427 2 180
 4699 1 11.99427 2 180
 4700 1 8.49594 2 180
 4701 1 5.99713 2 180
 4702 1 2.69871 2 180
 4703 2 1.23941 2 180 2.26892 3 180
 4704 2 0.44978 2 180 0.07996 4 0
 4705 3 0.31985 2 180 0.11994 4 0 0.01499 6 0
 4706 1 0.00000 2 180
 4707 1 1.49928 2 180
 4708 1 4.99761 2 180
 4709 1 6.49689 2 180
 4710 1 3.49833 2 180
 4711 1 8.49594 2 180
 4712 1 8.49594 2 180
 4713 1 7.99618 2 180
 4714 1 0.99952 2 180
 4715 1 2.99857 2 180
 4716 1 0.00000 2 180
 4717 1 0.15992 3 0
 4718 3 1.22312 1 0 0.58752 2 0 0.59562 3 0
 4719 1 0.19990 3 0
 4720 1 0.00090 3 0
 4721 1 0.03998 3 0
 4722 1 0.03998 3 0
 4723 1 0.03998 3 0
 4724 1 0.19990 3 0
 4725 1 0.15992 3 0
 4726 3 1.41932 1 180 0.81961 2 0 1.01951 3 0
 4727 3 0.09995 1 0 0.69967 2 0 0.09995 3 0
 4728 1 2.99857 1 180
 4729 2 0.99952 2 180 0.79962 3 0
 4730 2 0.57972 1 0 0.70966 3 0
 4731 3 0.59082 1 180 0.17532 2 0 0.93016 3 0
 4732 1 0.19990 3 0
 4733 1 0.19990 3 0
 4734 3 1.79914 1 180 0.49976 2 180 0.09995 3 0
 4735 1 0.09995 3 0
 4736 1 0.79962 3 0
 4737 1 1.36555 3 0
 4738 1 3.61987 3 180
 4739 1 0.33984 3 180
 4740 1 0.33984 3 180
 4741 1 0.13993 3 0
 4742 1 0.13993 3 0
 4743 1 0.18991 3 0
 4744 1 0.33984 3 180
 4745 1 0.33984 3 180
 4746 1 0.13993 3 0
 4747 1 0.00520 3 0
 4748 1 1.74706 3 0
 4749 1 0.00520 3 0
 4750 2 1.99904 1 180 0.69967 3 0
 4751 1 0.19990 2 0
 4752 1 2.02953 3 180
 4753 2 1.76915 1 180 0.69967 3 0
 4754 3 0.14993 1 0 1.09947 2 0 0.64969 3 0
 4755 2 0.98923 1 180 0.39291 3 0
 4756 1 0.00000 1 0
 4757 1 0.33984 3 180
 4758 3 3.69823 3 180 2.24892 4 0 0.22989 6 180
 4759 1 0.33984 3 180
 4760 1 1.69919 3 0
 4761 1 0.24988 3 180
 4762 1 0.13993 3 0
 4763 1 0.59971 3 180
 4764 1 0.13993 3 0
 4765 1 1.99904 2 180
 4766 1 0.00760 3 0
 4767 1 0.09995 3 0
 4768 1 0.00760 3 0
 4769 1 2.04902 3 180
 4770 1 3.61987 3 180
 4771 1 8.07434 3 180
 4772 2 1.76915 1 180 0.69967 3 0
 4773 2 0.30985 1 180 0.27987 6 0
 4774 2 1.19943 1 180 0.64969 3 0
 4775 1 0.09995 3 0
 4776 1 0.29986 3 0
 4777 1 2.79866 2 180
 4778 1 2.69871 2 180
 4779 1 1.87910 3 180
 4780 1 0.29986 3 0
 4781 1 13.99331 2 180
 4782 1 13.99331 2 180
 4783 1 13.99331 2 180
 4784 3 0.52975 1 180 0.41980 2 180 0.29986 3 180
 4785 1 0.00000 3 0
 4786 4 0.37052 1 0 0.00360 2 0 0.76813 3 0 0.26527 4 0
 4787 2 0.06867 3 0 0.58882 4 0
 4788 1 0.00000 3 180
 4789 1 1.09947 1 0
 4790 2 0.24988 2 180 0.19491 3 0
 4791 1 0.29986 2 0
 4792 3 0.00000 1 0 0.00000 2 180 0.89957 3 0
 4793 5 0.01499 1 0 0.29786 2 0 0.07596 3 180 0.61870 4 0 0.14793 6 0
 4794 2 2.74869 2 180 0.29986 4 0
 4795 5 0.01499 1 0 0.29786 2 0 0.07596 3 180 0.61870 4 0 0.14793 6 0
 4796 2 0.56023 1 180 6.96587 2 180
 4797 2 0.56023 1 180 6.96587 2 180
 4798 1 5.19632 2 180
 4799 1 3.49833 2 180
 4800 1 1.45770 2 180
 4801 1 9.76143 2 180
 4802 1 11.99427 2 180
 4803 2 0.56023 1 180 6.96587 2 180
 4804 2 0.56023 1 180 6.96587 2 180
 4805 1 5.19632 2 180
 4806 1 3.49833 2 180
 4807 1 1.45770 2 180
 4808 1 9.76143 2 180
 4809 1 11.99427 2 180
 4810 1 1.99904 2 180
 4811 3 7.67913 1 180 3.93452 2 180 2.61645 3 0
 4812 2 1.83912 1 0 1.00952 2 180
 4813 2 1.59924 1 0 3.99809 2 180
 4814 2 1.59924 1 0 3.99809 2 180
 4815 1 2.49881 2 180
 4816 1 0.99952 2 180
 4817 3 1.24940 1 180 1.49928 2 180 0.04998 6 180
 4818 4 0.97453 1 180 2.69871 2 180 0.04998 3 180 0.24988 6 180
 4819 2 0.53245 2 180 0.51985 3 0
 4820 1 0.90607 2 180
 4821 1 0.00000 2 180
 4822 1 0.00000 2 0
 4823 1 0.00000 1 180
 4824 4 0.39981 1 0 0.16992 2 180 0.12994 3 180 0.09995 6 180
 4825 1 0.09995 3 0
 4826 1 0.09995 3 0
 4827 1 3.99809 2 180
 4828 1 3.99809 2 180
 4829 1 3.09852 2 180
 4830 1 0.49976 2 180
 4831 1 3.19847 2 180
 4832 1 3.09852 2 180
 4833 1 3.09852 2 180
 4834 1 3.09852 2 180
 4835 1 2.99857 2 180
 4836 1 3.09852 2 180
 4837 1 3.09852 2 180
 4838 1 3.09852 2 180
 4839 1 3.09852 2 180
 4840 1 3.09852 2 180
 4841 1 3.09852 2 180
 4842 1 3.09852 2 180
 4843 1 2.72010 2 180
 4844 1 1.99904 2 180
 4845 1 4.99761 2 180
 4846 1 1.19943 2 180
 4847 1 3.69823 2 180
 4848 1 1.19943 2 180
 4849 1 1.49928 2 180
 4850 1 3.09852 2 180
 4851 1 3.09852 2 180
 4852 1 4.99761 2 180
 4853 1 1.39933 2 180
 4854 1 3.09852 2 180
 4855 1 3.09852 2 180
 4856 1 3.09852 2 180
 4857 1 3.09852 2 180
 4858 1 3.09852 2 180
 4859 1 3.09852 2 180
 4860 1 3.09852 2 180
 4861 1 4.49785 2 180
 4862 1 3.09852 2 180
 4863 1 2.99857 2 180
 4864 1 2.99857 2 180
 4865 1 2.99857 2 180
 4866 1 2.09900 2 180
 4867 1 1.39933 2 180
 4868 1 4.19799 2 180
 4869 1 4.19799 2 180
 4870 1 3.09852 2 180
 4871 1 0.49976 2 180
 4872 1 3.09852 2 180
 4873 1 6.99666 2 180
 4874 1 1.19943 2 180
 4875 1 3.09852 2 180
 4876 1 0.49976 2 180
 4877 1 0.49976 2 180
 4878 1 4.49785 2 180
 4879 1 2.99857 2 180
 4880 1 2.79866 2 180
 4881 1 3.99809 2 180
 4882 1 1.19943 2 180
 4883 1 1.19943 2 180
 4884 1 3.09852 2 180
 4885 1 1.99904 2 180
 4886 1 3.09852 2 180
 4887 1 3.09852 2 180
 4888 1 3.09852 2 180
 4889 1 3.09852 2 180
 4890 1 3.09852 2 180
 4891 1 4.49785 2 180
 4892 1 3.09852 2 180
 4893 1 3.09852 2 180
 4894 1 3.09852 2 180
 4895 1 0.24988 2 180
 4896 1 1.19943 2 180
 4897 1 3.09852 2 180
 4898 1 2.99857 2 180
 4899 1 2.99857 2 180
 4900 1 3.99809 2 180
 4901 1 1.49928 2 180
 4902 1 0.24988 2 180
 4903 1 2.99857 2 180
 4904 1 0.00000 2 180
 4905 1 0.00000 2 180
 4906 1 1.49928 2 180
 4907 1 2.99857 2 180
 4908 1 2.99857 2 180
 4909 1 3.49833 2 180
 4910 1 5.99713 2 180
 4911 1 0.00000 2 180
 4912 1 1.99904 2 180
 4913 1 0.00000 2 180
 4914 1 0.89067 2 180
 4915 1 0.22989 2 180
 4916 1 0.22989 2 180
 4917 1 0.29986 2 0
 4918 1 0.19990 2 0
 4919 1 0.22989 2 180
 4920 1 0.22989 2 180
 4921 1 0.22989 2 180
 4922 1 0.22989 2 180
 4923 1 0.69967 2 180
 4924 1 0.09995 6 180
 4925 1 0.14993 2 180
 4926 1 0.14993 2 180
 4927 1 0.29986 2 0
 4928 2 0.38981 2 180 0.03998 4 0
 4929 1 0.09995 2 0
 4930 1 0.09995 2 0
 4931 1 0.09995 4 0
 4932 1 0.22989 2 180
 4933 1 0.22989 2 180
 4934 1 0.22989 2 180
 4935 1 0.22989 2 180
 4936 1 0.22989 2 180
 4937 1 0.64969 2 180
 4938 1 0.22989 2 180
 4939 3 0.11894 2 0 0.13194 4 180 0.01299 6 180
 4940 1 0.99952 2 180
 4941 1 0.00000 2 0
 4942 1 0.00000 2 0
 4943 1 0.00000 2 0
 4944 1 0.19990 2 180
 4945 1 0.19990 2 180
 4946 1 0.11974 2 180
 4947 3 5.94866 1 180 0.34234 2 0 2.10110 3 180
 4948 1 0.00200 6 0
 4949 3 0.11894 2 0 0.13194 4 180 0.01299 6 180
 4950 1 0.14993 2 180
 4951 1 0.19990 2 0
 4952 1 0.32984 2 0
 4953 1 0.00000 2 0
 4954 1 0.00200 6 0
 4955 6 3.79748 1 0 3.28813 2 180 1.33776 3 0 0.21989 4 0 0.55463 5 180 0.35773 6 180
 4956 2 2.69871 2 180 0.24988 4 0
 4957 1 0.89957 2 180
 4958 1 0.59971 2 180
 4959 1 0.39981 2 180
 4960 1 0.00000 2 180
 4961 1 0.74964 2 180
 4962 3 0.19990 1 0 1.09947 2 180 0.59971 3 0
 4963 1 0.99952 2 180
 4964 1 1.19943 2 180
 4965 1 1.19943 2 180
 4966 1 1.19943 2 180
 4967 1 0.90957 2 180
 4968 1 0.49976 2 180
 4969 1 0.02999 2 180
 4970 1 3.10851 2 180
 4971 1 2.22893 2 180
 4972 1 0.99952 2 180
 4973 1 10.99474 2 180
 4974 1 1.99904 2 180
 4975 1 0.79962 2 180
 4976 1 0.00000 2 180
 4977 1 0.49976 2 180
 4978 1 1.19943 2 180
 4979 1 2.19895 2 180
 4980 2 1.90809 1 180 1.72518 2 180
 4981 1 2.19895 2 180
 4982 1 1.19943 2 180
 4983 1 1.19943 2 180
 4984 1 0.49976 2 180
 4985 1 1.34935 2 180
 4986 1 0.73965 2 0
 4987 2 1.49928 2 180 0.14993 4 0
 4988 3 0.95954 2 180 0.10495 4 0 0.03498 6 180
 4989 1 0.43979 2 0
 4990 1 0.07996 2 180
 4991 2 1.19943 2 180 0.29986 4 0
 4992 1 0.19990 2 180
 4993 1 0.49976 2 180
 4994 1 0.31985 2 180
 4995 1 2.36887 2 180
 4996 1 0.00000 2 0
 4997 1 1.19943 2 180
 4998 2 1.61923 2 180 0.18991 4 180
 4999 2 1.57925 2 180 0.19990 4 180
 5000 1 1.39933 2 180
 5001 2 0.50976 2 180 0.14993 4 0
 5002 2 0.50976 2 180 0.14993 4 0
 5003 1 0.98953 2 180
 5004 1 0.75964 2 0
 5005 1 1.74916 2 0
 5006 1 0.00400 6 0
 5007 1 0.21989 2 0
 5008 1 0.21989 2 0
 5009 1 0.34983 2 0
 5010 1 0.00000 6 0
 5011 3 0.95954 2 180 0.10495 4 0 0.03498 6 180
 5012 3 0.95954 2 180 0.10495 4 0 0.03498 6 180
 5013 2 1.61923 2 180 0.18991 4 180
 5014 1 0.55074 2 180
 5015 1 0.55074 2 180
 5016 1 2.49881 2 180
 5017 1 1.99904 2 180
 5018 1 3.69823 2 180
 5019 1 3.49833 2 180
 5020 1 3.09852 2 180
 5021 1 3.89814 2 180
 5022 1 0.99952 2 180
 5023 1 1.79914 2 180
 5024 1 0.99952 2 180
 5025 1 4.49785 2 180
 5026 1 0.59971 2 180
 5027 1 0.99952 2 180
 5028 1 1.99904 2 180
 5029 1 0.75964 2 0
 5030 1 0.49976 2 180
 5031 1 1.49928 2 180
 5032 1 4.79771 2 180
 5033 1 1.49928 2 180
 5034 1 1.49928 2 180
 5035 1 1.49928 2 180
 5036 1 2.86863 2 180
 5037 1 6.84673 2 180
 5038 1 1.29938 2 180
 5039 1 0.18991 2 180
 5040 3 0.19990 1 0 1.09947 2 180 0.59971 3 0
 5041 1 0.99952 2 180
 5042 1 1.19943 2 180
 5043 1 0.25988 2 180
 5044 1 1.47929 2 180
 5045 1 1.84912 2 180
 5046 1 1.99904 2 180
 5047 1 5.99713 2 180
 5048 1 1.99904 2 0
 5049 1 1.19943 2 180
 5050 3 1.49928 1 0 1.89909 2 180 0.71966 3 0
 5051 1 0.49976 2 180
 5052 1 1.99904 2 180
 5053 2 1.09947 1 0 1.99904 2 180
 5054 1 1.59924 2 180
 5055 1 3.09852 2 180
 5056 1 3.09852 2 180
 5057 1 4.49785 2 180
 5058 1 3.09852 2 180
 5059 1 3.09852 2 180
 5060 1 3.99809 2 180
 5061 1 2.99857 2 180
 5062 1 0.88957 2 180
 5063 2 0.45978 2 180 0.22989 4 0
 5064 1 1.99904 2 180
 5065 4 0.37482 1 0 0.93955 2 180 0.18991 3 180 0.15992 4 0
 5066 1 0.04998 2 180
 5067 1 6.74677 2 180
 5068 1 2.99857 2 180
 5069 1 1.19943 2 180
 5070 3 0.36982 2 180 0.26987 4 0 0.01999 6 0
 5071 2 1.44931 2 180 0.13993 4 180
 5072 2 0.36982 2 180 0.25988 4 0
 5073 1 2.99857 2 180
 5074 1 2.99857 2 180
 5075 1 2.99857 2 180
 5076 1 6.49689 2 180
 5077 1 1.49928 2 180
 5078 1 1.49928 2 180
 5079 1 1.49928 2 180
 5080 1 14.99283 2 180
 5081 1 0.00000 2 180
 5082 1 5.99713 2 180
 5083 1 0.00000 2 180
 5084 1 3.99809 2 180
 5085 1 0.00000 2 180
 5086 1 1.30548 2 180
 5087 1 1.99904 3 180
 5088 1 1.99904 3 180
 5089 1 0.89957 3 0
 5090 1 3.49833 3 0
 5091 1 0.89957 3 0
 5092 1 2.99857 2 180
 5093 1 2.99857 2 180
 5094 1 4.68676 2 180
 5095 1 0.49976 3 180
 5096 1 3.99809 2 180
 5097 1 14.99283 2 180
 5098 1 1.49928 2 180
 5099 1 18.99092 2 180
 5100 1 0.49976 2 180
 5101 1 2.99857 2 180
 5102 1 0.01139 2 180
 5103 1 0.19990 2 180
 5104 1 11.99427 2 180
 5105 1 5.99713 2 180
 5106 1 2.99857 2 180
 5107 1 0.99952 2 180
 5108 1 0.99952 2 180
 5109 1 0.79962 2 180
 5110 1 3.99809 2 180
 5111 1 0.00000 3 0
 5112 1 8.49594 2 180
 5113 1 0.29986 2 180
 5114 1 8.49594 2 180
 5115 1 2.99857 2 180
 5116 1 2.26002 2 180
 5117 1 2.55238 2 180
 5118 1 1.50018 2 0
 5119 1 0.03998 3 0
 5120 1 0.03998 3 0
 5121 1 0.03998 3 0
 5122 1 0.03998 3 0
 5123 1 0.00000 3 0
 5124 1 0.03998 3 0
 5125 3 1.07948 1 0 0.53974 2 0 0.76963 3 0
 5126 1 0.03998 3 0
 5127 1 0.03998 3 0
 5128 1 0.00000 3 0
 5129 2 0.09995 2 0 0.39981 3 0
 5130 1 0.00000 3 0
 5131 1 0.03998 3 0
 5132 1 0.18991 3 0
 5133 1 0.03998 3 0
 5134 1 0.19990 3 0
 5135 1 0.03998 3 0
 5136 1 0.03998 3 0
 5137 5 0.01499 1 0 0.29786 2 0 0.07596 3 180 0.61870 4 0 0.14793 6 0
 5138 1 0.00000 1 0
 5139 3 0.79962 1 180 0.49976 2 0 0.69967 3 0
 5140 1 0.29986 3 0
 5141 1 0.00000 3 0
 5142 3 0.59971 1 180 0.64969 2 0 0.04998 3 0
 5143 3 0.59971 1 180 0.64969 2 0 0.04998 3 0
 5144 3 2.09900 1 0 1.39933 2 0 0.73965 3 0
 5145 1 0.04998 3 0
 5146 2 1.64921 1 180 0.49976 2 0
 5147 1 0.04998 3 0
 5148 2 1.09128 1 180 0.75454 3 0
 5149 2 1.09128 1 180 0.75454 3 0
 5150 1 0.14853 3 0
 5151 3 0.41050 1 0 0.43739 2 0 0.09316 3 0
 5152 5 0.01499 1 0 0.29786 2 0 0.07596 3 180 0.61870 4 0 0.14793 6 0
 5153 1 0.03998 3 0
 5154 1 0.03998 3 0
 5155 3 1.69919 1 180 0.79962 2 180 0.57972 3 0
 5156 1 0.03998 3 0
 5157 3 1.69919 1 180 0.79962 2 180 0.57972 3 0
 5158 2 0.64969 1 180 0.77963 3 0
 5159 1 0.09995 3 0
 5160 1 0.03998 3 0
 5161 2 15.19274 2 180 0.49976 4 0
 5162 1 1.19943 2 180
 5163 1 0.49976 2 180
 5164 2 1.19943 1 180 1.39933 2 0
 5165 2 2.19895 2 0 0.19990 3 0
 5166 1 0.19990 3 0
 5167 1 2.66723 2 0
 5168 1 1.59924 2 180
 5169 1 0.09995 3 0
 5170 2 0.94955 2 0 0.49976 3 0
 5171 1 0.05537 3 0
 5172 3 1.59924 1 180 0.79962 2 0 0.09995 3 0
 5173 3 3.19847 1 180 0.19990 2 0 0.19990 3 0
 5174 1 0.29986 3 0
 5175 1 0.09495 3 0
 5176 3 0.23989 1 0 0.28986 2 0 0.01999 3 0
 5177 2 2.74869 2 180 0.29986 4 0
 5178 1 0.00000 3 180
 5179 1 0.99952 1 0
 5180 1 0.19491 3 0
 5181 1 0.00000 1 0
 5182 2 1.29938 1 180 0.00000 2 0
 5183 1 0.00000 3 180
 5184 2 1.09947 2 180 0.29986 4 0
 5185 2 1.09947 2 180 0.29986 4 0
 5186 1 0.99952 2 180
 5187 1 0.00000 2 180
 5188 1 0.99952 2 180
 5189 1 1.93907 2 180
 5190 1 2.37886 2 180
 5191 2 0.05038 2 180 0.04728 3 180
 5192 1 1.39933 1 0
 5193 1 1.39933 1 0
 5194 1 1.39933 1 0
 5195 1 1.39933 1 0
 5196 1 1.39933 1 0
 5197 1 0.00000 1 0
 5198 1 0.00000 1 0
 5199 1 1.67910 2 180
 5200 1 1.41812 1 0
 5201 1 0.00000 1 0
 5202 1 1.39933 1 0
 5203 1 1.39933 1 0
 5204 1 1.39933 1 0
 5205 1 1.39933 1 0
 5206 1 0.00000 1 0
 5207 1 0.00000 1 0
 5208 1 0.00000 1 0
 5209 1 0.26437 2 180
 5210 2 0.66968 2 180 0.93955 3 0
 5211 2 0.66968 2 180 0.93955 3 0
 5212 1 0.04998 6 180
 5213 1 0.04998 6 180
 5214 1 0.04998 6 180
 5215 1 0.04998 6 180
 5216 1 0.29986 1 0
 5217 1 0.00000 1 0
 5218 1 0.00000 1 0
 5219 1 0.00000 1 0
 5220 4 1.49129 1 0 1.94117 2 180 0.61970 3 0 0.27697 6 180
 5221 1 0.00000 3 180
 5222 1 0.00000 1 0
 5223 1 0.00000 3 180
 5224 1 0.00000 3 180
 5225 2 0.39981 1 180 0.59971 2 0
 5226 1 0.29986 4 180
 5227 1 0.19081 3 0
 5228 2 0.63710 1 180 0.43289 2 0
 5229 2 0.39981 1 180 0.59971 2 0
 5230 1 -0.29986 4 0
 5231 1 0.76653 1 180
 5232 2 0.39981 1 0 0.59971 2 0
 5233 2 0.39981 1 180 0.59971 2 0
 5234 1 0.13993 3 0
 5235 2 0.39981 1 0 0.59971 2 0
 5236 1 0.02269 2 180
 5237 1 0.02269 2 180
 5238 1 4.37251 2 180
 5239 6 0.17442 1 180 0.49906 2 180 1.38494 3 0 1.10237 4 180 0.55044 5 180 0.20330 6 0
 5240 1 7.84625 2 180
 5241 1 7.84625 2 180
 5242 1 2.49881 2 180
 5243 1 2.49881 2 180
 5244 1 2.59876 2 180
 5245 1 2.59876 2 180
 5246 1 2.59876 2 180
 5247 2 2.74869 2 180 0.29986 4 0
 5248 2 2.74869 2 180 0.29986 4 0
 5249 2 2.74869 2 180 0.29986 4 0
 5250 3 3.49423 1 180 8.72963 2 180 0.78363 3 180
 5251 1 2.14577 2 180
 5252 1 2.14577 2 180
 5253 1 0.57972 2 180
 5254 1 2.49881 2 180
 5255 1 2.49881 2 180
 5256 1 2.49881 2 180
 5257 1 2.49881 2 180
 5258 1 2.49881 2 180
 5259 1 2.49881 2 180
 5260 1 2.49881 2 180
 5261 1 0.05667 2 180
 5262 1 2.49881 2 180
 5263 1 1.39933 2 180
 5264 1 2.49881 2 180
 5265 1 2.49881 2 180
 5266 1 2.49881 2 180
 5267 1 2.49881 2 180
 5268 2 2.74869 2 180 0.29986 4 0
 5269 2 2.74869 2 180 0.29986 4 0
 5270 1 1.02451 2 180
 5271 1 3.10811 2 0
 5272 2 0.69967 1 0 0.29986 3 180
 5273 2 0.69967 1 0 0.29986 3 180
 5274 1 0.04998 6 180
 5275 1 0.04998 6 180
 5276 1 0.04998 6 180
 5277 1 0.00000 1 0
 5278 1 0.00000 1 0
 5279 1 0.00000 6 180
 5280 1 0.54974 2 180
 5281 1 0.00000 3 0
 5282 2 2.11049 2 180 2.31479 3 0
 5283 1 0.84959 1 0
 5284 1 0.84959 1 0
 5285 1 0.00000 6 180
 5286 1 0.04998 6 180
 5287 1 0.04998 6 180
 5288 1 0.00000 1 0
 5289 1 0.00000 6 180
 5290 1 0.00000 6 180
 5291 2 0.09995 1 0 0.97953 2 180
 5292 1 0.00000 6 180
 5293 1 0.00000 6 180
 5294 2 0.96454 1 180 3.84816 2 180
 5295 2 0.96454 1 180 3.84816 2 180
 5296 2 0.96454 1 180 3.84816 2 180
 5297 2 0.96454 1 180 3.84816 2 180
 5298 2 0.12154 1 0 3.35530 2 180
 5299 2 1.33336 1 180 3.86525 2 180
 5300 1 2.04902 2 180
 5301 3 0.01479 1 0 2.30560 2 180 0.13124 3 180
 5302 2 2.01014 1 180 3.33521 2 180
 5303 1 1.07948 2 180
 5304 1 1.07948 2 180
 5305 2 2.59876 1 180 1.79914 2 180
 5306 4 1.04950 1 180 0.39981 2 180 0.59971 3 180 0.09995 4 180
 5307 4 1.04950 1 180 0.39981 2 180 0.59971 3 180 0.09995 4 180
 5308 4 1.04950 1 180 0.39981 2 180 0.59971 3 180 0.09995 4 180
 5309 1 0.00000 1 0
 5310 1 0.00000 3 180
 5311 4 1.04950 1 180 0.39981 2 180 0.59971 3 180 0.09995 4 180
 5312 2 1.43581 1 180 1.44241 2 180
 5313 3 0.09995 1 0 0.99952 2 180 0.54974 3 180
 5314 1 0.00000 3 180
 5315 1 0.19990 3 180
 5316 1 0.09945 2 0
 5317 1 0.45558 3 180
 5318 1 0.03888 2 0
 5319 1 3.21846 2 180
 5320 2 1.42932 2 180 0.17991 4 0
 5321 1 1.29938 2 180
 5322 1 1.29938 2 180
 5323 1 2.79866 2 180
 5324 1 2.29890 2 180
 5325 1 4.69775 2 180
 5326 1 0.45978 2 180
 5327 1 1.99904 2 180
 5328 1 1.99904 2 180
 5329 2 3.99809 2 180 0.94955 4 0
 5330 2 3.99809 2 180 0.94955 4 0
 5331 2 3.99809 2 180 0.94955 4 0
 5332 1 0.00000 2 180
 5333 1 1.39933 2 180
 5334 3 0.14993 1 0 2.19895 2 180 0.09995 3 0
 5335 3 0.24988 1 180 1.84912 2 180 0.11994 3 0
 5336 1 0.78942 2 180
 5337 1 0.56973 3 0
 5338 1 0.56973 3 0
 5339 1 0.07996 3 0
 5340 1 0.07996 3 0
 5341 1 0.07996 3 0
 5342 1 0.27977 3 0
 5343 1 0.08056 3 0
 5344 1 0.00000 3 0
 5345 1 0.07996 3 0
 5346 1 0.07996 3 0
 5347 1 0.07996 3 0
 5348 1 0.00000 3 0
 5349 1 2.49881 2 180
 5350 1 2.49881 2 180
 5351 1 2.49881 2 180
 5352 1 2.49881 2 180
 5353 1 0.01999 2 180
 5354 1 0.00010 2 180
 5355 1 0.85959 2 180
 5356 1 5.99713 2 180
 5357 1 5.99713 2 180
 5358 1 1.09947 2 180
 5359 1 0.19990 2 180
 5360 1 2.49881 2 180
 5361 1 2.49881 2 180
 5362 1 0.19990 2 180
 5363 1 2.58876 2 180
 5364 1 2.58876 2 180
 5365 1 0.85959 2 180
 5366 1 4.33793 2 180
 5367 1 4.33793 2 180
 5368 2 0.24988 1 0 1.29938 2 180
 5369 2 0.24988 1 0 1.29938 2 180
 5370 5 0.39381 1 180 6.53238 2 180 0.77693 3 180 0.51825 4 180 0.11814 6 0
 5371 1 0.99952 2 180
 5372 2 0.34983 1 180 0.61970 2 0
 5373 1 0.00000 1 0
 5374 1 0.00000 1 0
 5375 1 0.00000 1 0
 5376 1 0.00000 1 0
 5377 1 0.59971 1 0
 5378 3 1.88250 1 180 1.69629 2 0 0.91396 3 180
 5379 1 0.00000 1 0
 5380 1 0.00000 1 0
 5381 1 0.00000 1 0
 5382 1 0.00000 1 0
 5383 1 0.00000 1 0
 5384 1 0.59971 1 0
 5385 1 0.59971 1 0
 5386 1 0.00000 1 0
 5387 2 0.24978 2 180 0.46438 3 180
 5388 2 0.20990 1 180 0.54974 3 0
 5389 2 0.20990 1 180 0.54974 3 0
 5390 1 0.04998 6 180
 5391 1 0.04998 6 180
 5392 1 0.04998 6 180
 5393 1 0.04998 6 180
 5394 1 0.59971 1 0
 5395 3 1.92868 1 0 0.86958 2 180 1.12016 3 0
 5396 1 0.00000 3 180
 5397 1 0.39981 1 0
 5398 1 0.00000 3 180
 5399 1 0.00000 3 0
 5400 2 0.39981 1 0 0.59971 2 0
 5401 2 0.29986 1 0 -0.29986 4 0
 5402 2 0.39981 1 180 0.59971 2 0
 5403 2 0.39981 1 0 0.59971 2 0
 5404 1 0.29986 1 0
 5405 2 0.39981 1 180 0.59971 2 0
 5406 2 1.59924 1 0 2.49881 2 180
 5407 2 1.59924 1 0 2.49881 2 180
 5408 1 3.99809 2 180
 5409 1 1.49928 2 180
 5410 1 1.85361 2 180
 5411 1 0.00000 1 0
 5412 1 0.00000 1 0
 5413 1 0.00000 1 0
 5414 1 0.00000 1 0
 5415 1 0.39981 1 0
 5416 1 0.00000 1 0
 5417 1 0.00000 1 0
 5418 1 0.00000 1 0
 5419 1 0.00000 1 0
 5420 1 0.00000 1 0
 5421 1 0.39981 1 0
 5422 1 0.00000 1 0
 5423 1 1.49928 1 0
 5424 1 0.39981 1 0
 5425 1 0.00000 1 0
 5426 1 0.39981 1 0
 5427 1 0.00000 1 0
 5428 1 0.00000 3 0
 5429 2 0.39981 1 0 0.59971 2 0
 5430 2 0.29986 1 0 -0.29986 4 0
 5431 2 0.39981 1 180 0.59971 2 0
 5432 2 0.39981 1 0 0.59971 2 0
 5433 1 0.29986 1 0
 5434 2 0.39981 1 180 0.59971 2 0
 5435 1 1.29938 2 180
 5436 2 1.19943 1 180 1.49928 2 180
 5437 2 1.19943 1 180 1.49928 2 180
 5438 1 0.89957 2 180
 5439 2 2.19895 2 180 0.09995 3 180
 5440 1 2.39885 2 180
 5441 1 3.99809 2 180
 5442 1 4.59780 2 180
 5443 1 4.79771 2 180
 5444 1 0.19990 3 0
 5445 1 0.19990 3 0
 5446 1 0.19990 3 0
 5447 1 0.59971 1 0
 5448 1 0.59971 1 0
 5449 1 0.19491 3 0
 5450 1 0.19491 3 0
 5451 1 0.59971 1 0
 5452 1 0.59971 1 0
 5453 1 0.13993 3 0
 5454 1 0.13993 3 0
 5455 3 0.19211 1 0 1.08468 2 0 0.64989 3 0
 5456 2 0.29986 1 0 0.29986 4 180
 5457 1 0.59971 1 0
 5458 1 0.13993 3 0
 5459 1 0.13993 3 0
 5460 1 0.81441 2 180
 5461 1 0.13993 3 0
 5462 2 0.29986 1 0 0.29986 4 180
 5463 1 0.59971 1 0
 5464 1 0.13993 3 0
 5465 2 3.53151 1 180 0.64619 3 0
 5466 1 0.39981 1 0
 5467 1 0.39981 1 0
 5468 1 0.19990 3 0
 5469 1 0.19990 3 0
 5470 1 0.19990 3 0
 5471 1 0.00000 3 0
 5472 2 0.56833 1 0 0.20890 2 0
 5473 1 0.19341 3 180
 5474 2 1.56545 1 0 3.09432 2 180
 5475 1 1.17994 2 180
 5476 2 2.74869 2 180 0.29986 4 0
 5477 2 2.74869 2 180 0.29986 4 0
 5478 1 2.49881 2 180
 5479 2 2.69631 1 0 1.09818 2 180
 5480 2 2.69631 1 0 1.09818 2 180
 5481 1 0.00140 2 180
 5482 1 0.00290 2 180
 5483 2 0.09995 1 180 2.12898 2 180
 5484 1 1.49928 2 180
 5485 1 1.49928 2 180
 5486 1 0.99952 2 180
 5487 2 0.24988 1 180 0.59971 2 180
 5488 2 0.24988 1 180 0.59971 2 180
 5489 1 1.59924 2 180
 5490 1 1.59924 2 180
 5491 1 0.89957 2 180
 5492 1 13.99331 2 180
 5493 1 6.99666 2 180
 5494 1 0.49976 2 180
 5495 1 10.99474 2 180
 5496 1 1.59924 2 180
 5497 1 0.89957 2 180
 5498 1 0.89957 2 180
 5499 1 1.59924 2 180
 5500 2 2.74869 2 180 0.29986 4 0
 5501 2 2.74869 2 180 0.29986 4 0
 5502 2 1.59924 1 0 2.49881 2 180
 5503 2 1.59924 1 0 2.49881 2 180
 5504 2 1.59924 1 0 2.49881 2 180
 5505 1 2.49881 2 180
 5506 1 2.49881 2 180
 5507 2 1.59924 1 0 2.49881 2 180
 5508 1 2.49881 2 180
 5509 2 1.59924 1 0 2.49881 2 180
 5510 2 1.59924 1 0 2.49881 2 180
 5511 2 2.74869 2 180 0.29986 4 0
 5512 2 2.74869 2 180 0.29986 4 0
 5513 1 11.99427 2 180
 5514 1 11.99427 2 180
 5515 1 11.99427 2 180
 5516 1 8.88575 2 180
 5517 1 2.89861 2 180
 5518 1 0.19990 2 180
 5519 1 0.19990 2 180
 5520 1 0.19990 2 180
 5521 1 0.19990 3 0
 5522 1 0.19491 3 0
 5523 1 0.19990 3 0
 5524 1 0.09995 3 0
 5525 3 0.19990 1 180 0.09995 2 0 0.09995 3 180
 5526 3 0.59971 1 180 0.64969 2 0 0.04998 3 0
 5527 3 0.59971 1 180 0.64969 2 0 0.04998 3 0
 5528 3 0.59971 1 180 0.64969 2 0 0.04998 3 0
 5529 3 1.12946 1 0 0.13993 2 0 0.23989 3 0
 5530 2 0.23989 1 180 0.36982 3 0
 5531 1 0.19990 3 0
 5532 1 0.19990 3 0
 5533 1 0.40980 3 180
 5534 1 0.40980 3 180
 5535 1 0.39981 6 0
 5536 1 0.14993 3 0
 5537 1 0.00000 3 0
 5538 1 0.00000 3 0
 5539 1 0.00000 3 0
 5540 1 0.00000 3 0
 5541 3 1.99904 3 180 0.39981 5 0 0.79962 6 0
 5542 1 0.19990 3 0
 5543 1 0.00000 3 0
 5544 1 0.08906 3 0
 5545 1 0.19990 3 0
 5546 1 0.18991 3 0
 5547 1 0.18991 3 0
 5548 1 0.40980 3 180
 5549 1 0.40980 3 180
 5550 1 0.14993 3 0
 5551 1 0.00000 3 0
 5552 1 0.18991 3 0
 5553 1 0.33984 3 180
 5554 1 0.14993 3 0
 5555 1 0.00000 3 0
 5556 1 0.13993 3 0
 5557 1 0.59971 6 0
 5558 1 0.19491 3 0
 5559 1 0.14993 3 0
 5560 1 0.14993 3 0
 5561 2 0.59971 3 0 0.49976 4 0
 5562 1 0.14993 3 0
 5563 1 0.19990 4 0
 5564 1 0.00000 3 180
 5565 1 0.00000 3 0
 5566 1 0.00000 3 180
 5567 1 0.99952 3 0
 5568 3 1.49928 1 180 0.64969 2 180 0.99952 3 0
 5569 1 0.29986 1 0
 5570 1 0.00000 3 0
 5571 1 0.00000 3 0
 5572 2 1.99904 1 180 0.69967 3 0
 5573 1 0.19990 2 0
 5574 1 0.29986 3 180
 5575 1 2.49881 1 180
 5576 1 2.49881 1 180
 5577 3 0.28986 1 0 0.61970 2 0 0.04998 3 0
 5578 1 0.49976 3 0
 5579 1 0.49976 3 0
 5580 1 0.00000 6 0
 5581 2 0.56353 1 180 0.34863 3 0
 5582 2 0.56353 1 180 0.34863 3 0
 5583 2 0.19990 1 180 0.29986 3 0
 5584 1 0.40980 3 180
 5585 1 0.40980 3 180
 5586 1 0.14993 3 0
 5587 1 0.68967 3 0
 5588 1 0.00000 3 0
 5589 1 0.18991 3 0
 5590 1 0.33984 3 180
 5591 1 0.13993 3 0
 5592 1 0.13993 3 0
 5593 1 3.99809 3 0
 5594 1 1.74916 3 0
 5595 1 0.14993 3 0
 5596 1 0.26517 3 180
 5597 1 0.09995 3 0
 5598 1 0.17991 3 0
 5599 2 0.54974 1 0 0.84959 3 0
 5600 1 0.49976 3 0
 5601 1 0.49976 3 0
 5602 1 0.49976 3 0
 5603 2 0.17172 1 180 0.36982 3 0
 5604 1 0.14993 3 0
 5605 2 0.59971 3 0 0.49976 4 0
 5606 1 0.14993 3 0
 5607 1 0.00000 3 180
 5608 2 0.79962 1 180 0.07996 3 0
 5609 1 0.07996 3 0
 5610 1 0.00000 6 0
 5611 1 3.99809 3 0
 5612 1 3.99809 3 0
 5613 1 0.59971 3 0
 5614 1 0.49976 4 0
 5615 1 1.19943 3 0
 5616 1 0.14993 3 0
 5617 2 2.44883 3 180 0.99952 4 0
 5618 2 0.39981 3 0 0.49976 4 0
 5619 1 1.89909 2 0
 5620 1 0.86189 3 0
 5621 1 0.02119 3 0
 5622 1 0.09995 3 0
 5623 3 1.19943 1 180 0.09995 2 180 0.09995 3 180
 5624 2 0.94955 2 0 0.49976 3 0
 5625 1 0.09995 3 0
 5626 1 0.00000 1 0
 5627 1 1.39933 1 0
 5628 2 2.74869 2 180 0.29986 4 0
 5629 3 0.18391 1 180 0.25288 2 0 0.14993 3 0
 5630 2 2.74869 2 180 0.29986 4 0
 5631 2 2.74869 2 180 0.29986 4 0
 5632 2 1.59924 1 0 2.49881 2 180
 5633 2 1.59924 1 0 2.49881 2 180
 5634 2 1.59924 1 0 2.49881 2 180
 5635 1 2.49881 2 180
 5636 1 2.49881 2 180
 5637 1 4.24797 2 180
 5638 1 0.39981 6 0
 5639 1 0.13993 3 0
 5640 1 0.19491 3 0
 5641 3 0.28986 1 0 0.61970 2 0 0.04998 3 0
 5642 2 0.19990 1 180 0.29986 3 0
 5643 1 0.15992 3 0
 5644 1 0.39981 6 0
 5645 1 0.15992 3 0
 5646 1 0.49976 4 0
 5647 1 0.29986 3 0
 5648 2 2.44883 3 0 0.99952 4 0
 5649 2 1.59924 1 0 2.49881 2 180
 5650 1 2.49881 2 180
 5651 2 1.59924 1 0 2.49881 2 180
 5652 1 2.49881 2 180
 5653 2 1.59924 1 0 2.49881 2 180
 5654 2 1.59924 1 0 2.49881 2 180
 5655 2 2.74869 2 180 0.29986 4 0
 5656 2 2.74869 2 180 0.29986 4 0
 5657 1 11.99427 2 180
 5658 1 2.89861 2 180
 5659 1 1.02481 2 0
 5660 1 0.35163 3 0
 5661 1 0.35163 3 0
 5662 1 0.19990 2 180
 5663 1 0.19990 2 180
 5664 1 2.99857 2 180
 5665 2 0.15992 1 180 0.38981 2 0
 5666 1 0.49976 3 0
 5667 1 0.40980 3 180
 5668 1 0.18991 3 0
 5669 1 2.49881 2 180
 5670 1 4.19799 2 180
 5671 1 5.99713 2 180
 5672 1 2.99857 2 180
 5673 1 6.99666 2 180
 5674 1 1.19943 2 180
 5675 1 3.49833 2 180
 5676 1 2.99857 2 180
 5677 1 0.39981 2 180
 5678 1 0.99952 2 180
 5679 1 0.99952 2 180
 5680 1 1.59924 2 180
 5681 1 1.79914 2 180
 5682 1 0.79962 2 180
 5683 1 1.79914 2 180
 5684 1 0.99952 2 180
 5685 1 0.39981 2 180
 5686 1 4.49785 2 180
 5687 1 2.99857 2 180
 5688 1 0.59971 2 180
 5689 1 6.99666 2 180
 5690 1 0.59971 2 180
 5691 1 3.09852 2 180
 5692 1 1.99904 2 180
 5693 1 3.09852 2 180
 5694 1 3.09852 2 180
 5695 1 3.09852 2 180
 5696 1 3.09852 2 180
 5697 1 0.19990 2 0
 5698 1 0.22989 2 180
 5699 1 0.39981 2 0
 5700 1 0.69967 2 180
 5701 1 0.09995 6 180
 5702 2 0.38981 2 180 0.03998 4 0
 5703 1 0.09995 2 0
 5704 1 0.09995 2 0
 5705 1 0.09995 4 0
 5706 1 0.99952 2 180
 5707 1 0.99952 2 180
 5708 1 0.00000 2 0
 5709 1 0.05997 4 0
 5710 1 0.19990 2 0
 5711 1 0.49976 2 180
 5712 1 0.04998 2 0
 5713 1 0.45978 3 0
 5714 1 3.99809 2 180
 5715 1 0.59971 2 180
 5716 1 0.79962 2 180
 5717 1 10.99474 2 180
 5718 1 10.99474 2 180
 5719 1 10.99474 2 180
 5720 1 0.99952 2 180
 5721 1 0.99952 2 180
 5722 1 0.99952 2 180
 5723 1 10.99474 2 180
 5724 1 2.69871 2 180
 5725 1 1.99904 2 180
 5726 1 0.49976 2 180
 5727 1 3.99809 2 180
 5728 1 0.59971 2 180
 5729 1 3.99809 2 180
 5730 2 1.57925 2 180 0.19990 4 180
 5731 2 1.57925 2 180 0.19990 4 180
 5732 1 0.98953 2 180
 5733 1 0.93955 2 0
 5734 1 0.69967 3 180
 5735 1 0.79962 3 180
 5736 1 0.00000 3 180
 5737 1 0.69967 3 180
 5738 1 0.79962 3 180
 5739 1 1.49928 2 180
 5740 1 1.49928 2 180
 5741 1 0.49976 2 180
 5742 1 5.49737 2 180
 5743 1 5.49737 2 180
 5744 1 4.79771 2 180
 5745 1 0.39981 2 180
 5746 1 1.49928 2 180
 5747 1 1.49928 2 180
 5748 1 0.49976 2 180
 5749 1 1.49928 2 180
 5750 1 0.59971 2 0
 5751 1 6.84673 2 180
 5752 1 0.59971 2 180
 5753 1 3.34840 2 180
 5754 2 2.39885 2 180 0.69967 3 180
 5755 1 0.59971 2 180
 5756 1 0.00000 2 180
 5757 1 0.01000 2 180
 5758 1 5.99713 2 180
 5759 3 0.79962 1 0 2.19895 2 180 0.39981 3 0
 5760 1 0.49976 2 180
 5761 1 1.99904 2 180
 5762 1 0.06997 2 180
 5763 1 0.35983 2 180
 5764 1 1.97905 2 180
 5765 2 1.39933 1 0 2.69871 2 180
 5766 1 2.99857 2 180
 5767 3 0.42979 2 180 0.11994 4 0 0.01999 6 180
 5768 3 1.07948 1 0 0.53974 2 0 0.76963 3 0
 5769 3 0.79962 1 180 0.49976 2 0 0.69967 3 0
 5770 3 0.79962 1 180 0.49976 2 0 0.69967 3 0
 5771 1 0.29986 3 0
 5772 1 0.29986 3 0
 5773 3 2.09900 1 0 1.39933 2 0 1.09947 3 0
 5774 2 0.64969 1 180 0.77963 3 0
 5775 2 0.64969 1 180 0.77963 3 0
 5776 1 0.09995 3 0
 5777 1 0.03998 3 0
 5778 1 0.00000 3 0
 5779 1 0.00000 3 0
 5780 1 0.00000 3 0
 5781 1 0.00000 3 180
 5782 1 0.00000 3 0
 5783 1 0.00000 3 0
 5784 1 0.00000 3 0
 5785 1 0.00000 3 0
 5786 1 0.00000 3 180
 5787 1 0.99952 1 0
 5788 1 0.19491 3 0
 5789 1 0.00000 3 180
 5790 1 0.99952 1 0
 5791 1 0.84959 2 180
 5792 1 0.29986 3 0
 5793 2 0.99952 1 180 0.29986 3 0
 5794 1 0.04998 6 180
 5795 1 0.04998 6 180
 5796 1 0.04998 6 180
 5797 1 0.00000 1 0
 5798 1 0.00000 1 0
 5799 2 0.39981 2 180 0.09995 6 0
 5800 1 0.00000 1 0
 5801 2 0.29986 1 0 0.99952 2 180
 5802 2 0.29986 1 0 0.99952 2 180
 5803 1 0.52975 2 180
 5804 1 -0.14993 1 180
 5805 2 0.09995 1 180 0.97953 2 180
 5806 1 0.00000 3 0
 5807 1 0.00000 3 0
 5808 2 3.99809 2 180 0.94955 4 0
 5809 2 3.99809 2 180 0.94955 4 0
 5810 2 3.99809 2 180 0.94955 4 0
 5811 2 3.99809 2 180 0.94955 4 0
 5812 2 3.99809 2 180 0.94955 4 0
 5813 1 0.00000 2 180
 5814 2 0.09995 1 180 3.09852 2 180
 5815 2 0.54974 1 180 2.94859 2 180
 5816 1 0.15992 3 0
 5817 1 0.19990 3 0
 5818 1 0.19990 3 0
 5819 1 0.19491 3 0
 5820 1 0.19990 3 0
 5821 1 0.19491 3 0
 5822 2 3.29842 1 180 -0.39981 3 180
 5823 1 0.19491 3 0
 5824 1 0.19491 3 0
 5825 2 1.38104 2 180 0.03778 3 0
 5826 4 1.48489 1 0 0.00300 2 180 0.39461 3 0 0.01449 4 180
 5827 1 0.14993 1 0
 5828 1 0.00000 3 0
 5829 1 2.39885 2 180
 5830 1 0.15992 3 0
 5831 3 0.39751 1 0 0.83360 2 180 0.15033 3 0
 5832 1 0.19491 3 0
 5833 2 2.24573 2 0 0.64039 3 0
 5834 3 0.78962 1 180 0.38981 2 180 0.98953 3 180
 5835 1 0.19491 3 0
 5836 1 0.19491 3 0
 5837 2 3.29842 1 180 -0.39981 3 180
 5838 1 0.69967 1 180
 5839 1 0.19491 3 0
 5840 1 0.19491 3 0
 5841 1 0.15992 3 0
 5842 4 2.49881 1 180 0.39981 2 0 0.79962 3 180 0.19990 4 180
 5843 1 0.19990 3 180
 5844 1 0.14993 3 0
 5845 1 3.39838 1 180
 5846 1 0.19491 3 0
 5847 1 0.14993 1 180
 5848 1 0.49976 2 0
 5849 3 0.59971 1 0 0.44978 2 0 0.69967 3 0
 5850 1 0.19990 3 0
 5851 1 0.19990 3 0
 5852 1 0.00000 3 0
 5853 4 0.19990 3 0 0.59971 4 180 0.29986 5 0 0.49976 6 0
 5854 1 0.19990 3 0
 5855 1 0.19491 3 0
 5856 1 0.19491 3 0
 5857 3 1.99904 3 180 0.39981 5 0 0.79962 6 0
 5858 4 0.49976 1 180 0.69967 2 0 0.39981 3 0 0.39981 5 0
 5859 1 1.89909 2 0
 5860 4 0.19990 3 0 0.59971 4 180 0.29986 5 0 0.49976 6 0
 5861 1 0.19491 3 0
 5862 3 0.44978 2 0 0.79962 3 180 0.19990 4 0
 5863 2 0.44978 2 0 0.89957 6 0
 5864 1 0.14993 3 0
 5865 1 0.19990 3 0
 5866 1 0.29986 2 180
 5867 1 0.26297 2 0
 5868 1 0.29986 2 180
 5869 1 3.09852 2 180
 5870 1 0.04998 6 180
 5871 1 0.54974 2 180
 5872 1 0.54974 2 180
 5873 1 1.10947 2 180
 5874 3 3.34000 1 180 0.76893 2 180 6.84683 3 0
 5875 3 0.00520 1 0 0.42180 2 180 0.03828 3 180
 5876 1 0.37882 2 180
 5877 3 8.53692 1 180 0.18851 2 180 2.99197 3 0
 5878 1 0.00000 1 0
 5879 1 3.09852 2 180
 5880 1 0.04998 6 180
 5881 1 0.04998 6 180
 5882 1 0.04998 6 180
 5883 1 0.00000 1 0
 5884 1 0.00000 6 180
 5885 1 0.54974 2 180
 5886 1 0.54974 2 180
 5887 1 0.84959 2 180
 5888 2 2.36077 1 0 0.60801 2 180
 5889 1 0.04998 6 180
 5890 1 0.00000 1 0
 5891 2 0.87728 3 0 0.52215 4 0
 5892 1 0.04998 6 180
 5893 1 0.04998 6 180
 5894 1 0.04998 6 180
 5895 1 0.04998 6 180
 5896 1 3.19847 2 180
 5897 1 0.04998 6 180
 5898 3 0.82880 1 180 0.56833 2 180 1.49718 3 180
 5899 2 0.59971 2 180 0.09995 4 0
 5900 2 0.59971 2 180 0.09995 4 0
 5901 1 0.04998 6 180
 5902 1 0.04998 6 180
 5903 1 0.04998 6 180
 5904 1 0.04998 6 180
 5905 1 0.04998 6 180
 5906 1 1.27939 2 180
 5907 1 0.54974 2 180
 5908 1 1.04980 2 180
 5909 1 0.04998 6 180
 5910 1 0.19501 2 0
 5911 1 0.81031 2 180
 5912 1 0.07237 2 180
 5913 1 2.89861 2 180
 5914 1 3.19847 2 180
 5915 1 0.04998 6 180
 5916 1 0.04998 6 180
 5917 1 0.15992 3 0
 5918 1 0.15992 3 0
 5919 1 0.15992 3 0
 5920 1 0.15992 3 0
 5921 1 0.15992 3 0
 5922 1 0.15992 3 0
 5923 1 1.79704 2 180
 5924 4 1.55206 1 0 2.13328 2 180 0.48417 3 0 0.12164 6 0
 5925 2 0.65379 1 180 0.23219 3 0
 5926 1 1.99904 2 180
 5927 1 0.09525 3 0
 5928 1 0.03498 3 180
 5929 1 0.18271 2 180
 5930 1 1.49928 2 180
 5931 1 0.00000 1 0
 5932 1 1.42932 3 0
 5933 1 0.00000 3 0
 5934 1 0.56973 3 0
 5935 1 2.99857 3 0
 5936 1 0.19990 3 180
 5937 1 0.21900 2 180
 5938 1 0.49976 3 0
 5939 1 0.17602 2 0
 5940 1 0.22669 3 0
 5941 1 0.23349 2 180
 5942 1 1.09198 2 180
 5943 1 1.90949 2 180
 5944 1 1.58424 2 180
 5945 1 0.00000 2 0
 5946 1 0.00000 2 180
 5947 1 0.00000 1 0
 5948 4 0.74964 1 180 0.17991 2 180 0.06497 3 180 0.02999 6 0
 5949 4 0.74964 1 180 0.17991 2 180 0.06497 3 180 0.02999 6 0
 5950 2 0.00820 2 180 0.19671 3 180
 5951 1 0.00000 3 0
 5952 1 0.00000 3 0
 5953 1 0.10255 3 180
 5954 1 0.12224 3 180
 5955 1 3.69823 2 180
 5956 1 0.61181 2 180
 5957 1 0.04558 3 0
 5958 1 0.12524 3 0
 5959 1 0.28007 3 0
 5960 2 0.21890 3 0 0.28886 4 0
 5961 1 2.36887 2 0
 5962 1 0.00000 3 180
 5963 1 7.69632 2 180
 5964 1 0.18991 3 0
 5965 1 0.18991 3 0
 5966 1 0.00000 3 0
 5967 1 0.00000 3 0
 5968 1 0.18991 3 0
 5969 2 0.59971 1 180 0.19990 3 0
 5970 1 1.09947 1 0
 5971 2 1.09947 1 180 0.19990 3 0
 5972 1 0.99952 1 0
 5973 1 0.00000 3 0
 5974 1 0.00000 3 0
 5975 1 0.00000 3 0
 5976 2 0.59971 2 0 0.19990 3 0
 5977 2 0.22219 1 0 0.94415 3 0
 5978 2 0.22219 1 0 0.94415 3 0
 5979 1 0.25988 3 0
 5980 1 0.18991 3 0
 5981 1 0.49976 3 0
 5982 1 1.64921 3 180
 5983 1 0.99952 1 0
 5984 1 0.14993 3 0
 5985 1 0.00000 3 0
 5986 2 7.99618 2 180 0.94955 4 0
 5987 1 3.99809 2 180
 5988 1 3.72592 2 180
 5989 1 3.49833 2 180
 5990 1 2.99857 2 180
 5991 1 2.99857 2 180
 5992 1 3.99809 2 180
 5993 1 2.09900 2 180
 5994 1 1.89909 2 180
 5995 1 1.49928 2 180
 5996 1 8.99570 2 180
 5997 1 0.18991 3 0
 5998 1 0.18991 3 0
 5999 1 0.18991 3 0
 6000 1 0.18991 3 0
 6001 1 0.18991 3 0
 6002 1 0.18991 3 0
 6003 1 0.18991 3 0
 6004 1 0.00120 2 180
 6005 4 0.88288 1 0 0.05058 2 0 0.17901 3 180 0.01579 6 180
 6006 4 0.88288 1 0 0.05058 2 0 0.17901 3 180 0.01579 6 180
 6007 4 0.88288 1 0 0.05058 2 0 0.17901 3 180 0.01579 6 180
 6008 4 0.08896 1 0 0.01419 2 0 0.26347 3 180 0.10115 6 180
 6009 1 0.18991 3 0
 6010 4 0.88288 1 0 0.05058 2 0 0.17901 3 180 0.01579 6 180
 6011 4 0.88288 1 0 0.05058 2 0 0.17901 3 180 0.01579 6 180
 6012 4 0.08896 1 0 0.01419 2 0 0.26347 3 180 0.10115 6 180
 6013 1 0.18991 3 0
 6014 1 0.18991 3 0
 6015 1 11.99427 2 180
 6016 1 11.99427 2 180
 6017 1 13.99331 2 180
 6018 1 11.99427 2 180
 6019 1 13.99331 2 180
 6020 1 13.99331 2 180
 6021 1 2.39885 2 180
 6022 1 3.99809 2 180
 6023 1 8.49594 2 180
 6024 1 0.00000 2 180
 6025 1 0.19990 2 180
 6026 1 0.44978 2 180
 6027 1 1.99904 2 180
 6028 1 0.19491 3 0
 6029 1 0.58512 1 0
 6030 1 0.59971 1 0
 6031 3 2.24233 1 0 1.39593 2 0 1.14875 3 0
 6032 2 0.39621 2 0 2.22923 3 180
 6033 2 0.09835 2 0 1.06099 3 0
 6034 3 2.24233 1 0 1.39593 2 0 1.14875 3 0
 6035 2 0.39621 2 0 2.22923 3 180
 6036 2 0.09835 2 0 1.06099 3 0
 6037 1 0.00000 3 0
 6038 1 0.00000 3 0
 6039 1 0.00000 3 0
 6040 1 0.00000 3 0
 6041 1 0.00000 3 0
 6042 1 0.00000 3 0
 6043 1 0.14993 3 0
 6044 1 0.14993 3 0
 6045 1 0.14993 3 0
 6046 1 0.00000 3 0
 6047 1 0.00000 3 0
 6048 1 0.14993 3 0
 6049 3 1.53257 1 0 1.50098 2 0 0.37872 3 0
 6050 1 0.19491 3 0
 6051 1 0.00000 3 0
 6052 1 0.00000 3 0
 6053 1 0.00000 3 0
 6054 1 0.00000 3 0
 6055 1 0.00000 3 0
 6056 1 0.00000 3 0
 6057 1 0.00000 3 0
 6058 1 0.00000 3 0
 6059 1 0.39981 2 180
 6060 1 2.19895 2 180
 6061 1 0.00000 2 180
 6062 1 1.59924 2 180
 6063 1 2.19895 2 180
 6064 1 1.99904 2 180
 6065 1 1.29938 2 180
 6066 1 2.39885 2 180
 6067 1 0.99952 2 180
 6068 1 2.39885 2 180
 6069 1 2.39885 2 180
 6070 1 2.39885 2 180
 6071 1 1.09947 2 180
 6072 1 0.00000 2 180
 6073 1 0.00000 2 180
 6074 1 2.39885 2 180
 6075 1 3.09852 2 180
 6076 1 2.39885 2 180
 6077 1 6.59685 2 180
 6078 1 7.49642 2 180
 6079 1 11.99427 2 180
 6080 1 9.49546 2 180
 6081 1 8.49594 2 180
 6082 1 2.59876 2 180
 6083 1 1.49928 2 180
 6084 2 0.19990 1 0 0.26987 2 0
 6085 2 0.19990 1 0 0.26987 2 0
 6086 1 0.00000 3 0
 6087 1 11.99427 2 180
 6088 1 1.49928 2 180
 6089 1 11.99427 2 180
 6090 1 0.03998 3 0
 6091 1 0.03998 3 0
 6092 1 0.19990 3 0
 6093 1 0.00000 3 0
 6094 1 0.99952 3 0
 6095 1 11.99427 2 180
 6096 1 1.39933 2 180
 6097 1 0.19990 2 180
 6098 1 8.49594 2 180
 6099 1 1.39933 2 180
 6100 1 1.39933 2 180
 6101 1 9.49546 2 180
 6102 1 1.39933 2 180
 6103 1 0.49976 2 180
 6104 1 0.24988 3 0
 6105 1 11.99427 2 180
 6106 1 8.99570 2 180
 6107 1 3.99809 2 180
 6108 1 1.49928 2 180
 6109 1 9.99522 2 180
 6110 1 0.99952 2 180
 6111 1 2.69871 2 180
 6112 1 4.19799 2 180
 6113 1 11.99427 2 180
 6114 1 11.99427 2 180
 6115 1 7.49642 2 180
 6116 1 10.99474 2 180
 6117 1 10.49498 2 180
 6118 1 8.88575 2 180
 6119 1 2.89861 2 180
 6120 1 5.79723 2 180
 6121 1 1.02481 2 0
 6122 1 0.43189 3 0
 6123 1 6.49689 2 180
 6124 1 12.99379 2 180
 6125 1 16.99188 2 180
 6126 1 0.19990 2 180
 6127 1 0.19990 2 180
 6128 1 0.19990 2 180
 6129 1 0.39981 2 180
 6130 1 1.26939 2 180
 6131 2 0.29586 2 180 0.51176 3 180
 6132 1 3.79818 2 180
 6133 1 5.99723 2 180
 6134 1 6.49689 2 180
 6135 1 5.99713 2 180
 6136 1 2.28161 2 180
 6137 1 0.79962 3 0
 6138 1 0.09995 3 0
 6139 3 0.28986 1 0 0.61970 2 0 0.04998 3 0
 6140 2 0.39981 1 0 0.59971 2 0
 6141 1 0.00000 1 0
 6142 1 0.40980 3 180
 6143 1 0.14993 3 0
 6144 1 0.00000 3 0
 6145 2 0.79962 3 180 0.19990 4 0
 6146 1 0.19990 3 0
 6147 1 0.00000 3 0
 6148 1 0.19990 3 0
 6149 1 0.18991 3 0
 6150 1 0.18991 3 0
 6151 1 0.33984 3 180
 6152 3 3.69823 3 180 2.24892 4 0 0.22989 6 180
 6153 1 0.40980 3 180
 6154 1 0.40980 3 180
 6155 1 0.14993 3 0
 6156 1 0.13993 3 0
 6157 1 0.68967 3 0
 6158 1 0.00000 3 0
 6159 1 0.18991 3 0
 6160 1 0.04998 3 0
 6161 3 2.19895 2 180 3.99809 3 0 0.54974 6 180
 6162 1 0.04998 3 0
 6163 3 2.19895 2 180 3.99809 3 0 0.54974 6 180
 6164 1 0.00000 3 0
 6165 1 0.14993 3 0
 6166 2 0.59971 3 0 0.49976 4 0
 6167 1 0.14993 3 0
 6168 1 0.19990 4 0
 6169 1 0.00000 3 180
 6170 1 0.00000 3 0
 6171 1 0.00000 3 180
 6172 1 0.99952 3 0
 6173 1 0.79962 3 0
 6174 1 0.09995 3 0
 6175 1 1.63342 3 0
 6176 1 0.61571 1 0
 6177 3 1.49928 1 180 0.64969 2 180 0.99952 3 0
 6178 1 0.29986 1 0
 6179 2 1.99904 1 180 0.69967 3 0
 6180 2 1.99904 1 180 0.69967 3 0
 6181 1 0.19990 2 0
 6182 1 0.29986 3 180
 6183 1 1.39353 3 0
 6184 1 1.39353 3 0
 6185 1 0.17991 3 0
 6186 1 1.10207 3 0
 6187 2 0.54974 1 0 0.84959 3 0
 6188 2 0.19990 1 180 0.29986 3 0
 6189 3 0.09995 1 180 1.64921 2 180 0.44978 3 0
 6190 2 0.29986 1 180 0.79962 2 180
 6191 1 2.49881 1 180
 6192 1 2.49881 1 180
 6193 3 0.28986 1 0 0.61970 2 0 0.04998 3 0
 6194 1 0.49976 3 0
 6195 1 0.49976 3 0
 6196 1 0.03578 3 0
 6197 2 0.17342 1 0 0.30335 3 0
 6198 2 0.39981 1 0 0.59971 2 0
 6199 1 0.00000 1 0
 6200 1 0.46238 4 180
 6201 1 0.61461 4 180
 6202 1 0.40980 3 180
 6203 1 0.14993 3 0
 6204 1 2.12898 3 0
 6205 1 0.13993 3 0
 6206 1 0.68967 3 0
 6207 1 0.00000 3 0
 6208 1 0.18991 3 0
 6209 1 0.13993 3 0
 6210 1 0.13993 3 0
 6211 1 0.33984 3 180
 6212 1 0.14993 3 0
 6213 1 0.13993 3 0
 6214 1 0.13993 3 0
 6215 1 0.13993 3 0
 6216 1 0.13993 3 0
 6217 1 0.13993 3 0
 6218 2 0.09995 3 0 0.49976 4 0
 6219 1 0.19990 3 0
 6220 3 2.19895 2 180 3.99809 3 0 0.54974 6 180
 6221 1 0.00000 3 0
 6222 1 0.00000 3 0
 6223 1 0.14993 3 0
 6224 1 0.14993 3 0
 6225 1 0.14993 3 0
 6226 2 0.59971 3 0 0.49976 4 0
 6227 1 0.14993 3 0
 6228 1 1.89909 3 180
 6229 1 2.30890 3 180
 6230 1 0.75964 3 0
 6231 1 0.00000 3 180
 6232 1 0.09995 3 0
 6233 1 0.09995 3 0
 6234 1 0.04998 3 180
 6235 1 1.89909 3 180
 6236 1 1.44931 3 180
 6237 1 1.01891 3 0
 6238 1 1.01891 3 0
 6239 1 0.17991 3 0
 6240 1 0.17991 3 0
 6241 1 2.79866 3 180
 6242 1 0.89957 3 0
 6243 2 0.54974 1 0 0.84959 3 0
 6244 1 0.72965 3 0
 6245 1 2.21894 2 0
 6246 1 0.49976 3 0
 6247 1 0.49976 3 0
 6248 1 0.49976 3 0
 6249 1 0.14993 3 0
 6250 2 0.59971 3 0 0.49976 4 0
 6251 1 0.14993 3 0
 6252 2 0.79962 1 180 0.07996 3 0
 6253 2 1.19943 1 180 0.24988 3 0
 6254 1 0.07996 3 0
 6255 1 0.07996 3 0
 6256 1 0.07996 3 0
 6257 1 0.69967 3 180
 6258 1 0.07996 3 0
 6259 1 0.09995 3 0
 6260 1 0.03998 3 0
 6261 1 0.07996 3 0
 6262 1 0.14993 3 0
 6263 1 0.59971 3 0
 6264 1 0.14993 3 0
 6265 1 0.14993 3 0
 6266 1 0.49976 4 0
 6267 1 1.19943 3 0
 6268 1 0.14993 3 0
 6269 1 0.09995 3 0
 6270 1 0.29986 3 0
 6271 1 0.00000 3 180
 6272 1 0.29986 3 0
 6273 2 2.44883 3 180 0.99952 4 0
 6274 1 1.01951 3 0
 6275 1 0.07996 3 0
 6276 1 0.33744 3 0
 6277 1 0.00000 3 0
 6278 1 2.38166 3 180
 6279 1 0.76853 3 180
 6280 1 11.49451 2 180
 6281 1 4.24797 2 180
 6282 2 0.36982 3 180 0.02999 6 180
 6283 1 0.03998 3 0
 6284 1 0.15992 3 0
 6285 1 1.57925 3 180
 6286 2 1.64921 1 0 0.73965 3 0
 6287 1 0.24988 3 180
 6288 1 0.59971 3 0
 6289 1 11.99427 2 180
 6290 1 2.49881 2 180
 6291 1 0.18991 3 0
 6292 1 0.18991 3 0
 6293 1 0.18991 3 0
 6294 1 0.18991 3 0
 6295 1 0.18991 3 0
 6296 2 0.02949 2 180 0.18991 3 0
 6297 2 0.02949 2 180 0.18991 3 0
 6298 1 0.33794 3 0
 6299 1 0.33794 3 0
 6300 1 11.99427 2 180
 6301 1 13.99331 2 180
 6302 1 3.69823 2 180
 6303 1 7.69632 2 180
 6304 1 1.39933 2 180
 6305 1 7.69632 2 180
 6306 1 4.99761 2 180
 6307 1 5.49737 2 180
 6308 1 1.99904 2 180
 6309 1 0.06997 3 0
 6310 1 0.29986 3 0
 6311 1 0.00000 3 0
 6312 1 0.00000 3 0
 6313 1 0.00000 3 0
 6314 1 0.00000 3 0
 6315 1 0.00000 3 0
 6316 1 3.49833 2 180
 6317 1 3.69823 2 180
 6318 1 0.31985 3 0
 6319 1 0.31985 3 0
 6320 1 0.31985 3 0
 6321 1 0.18991 3 0
 6322 1 0.79962 2 180
 6323 1 0.19990 2 180
 6324 1 1.99904 2 180
 6325 1 4.99761 2 180
 6326 1 0.00000 2 180
 6327 1 0.19990 2 180
 6328 1 0.59971 2 180
 6329 1 3.49833 2 180
 6330 1 17.99140 2 180
 6331 1 0.68967 3 0
 6332 1 0.68967 3 0
 6333 1 0.00000 3 0
 6334 3 1.21042 1 180 1.64861 2 0 0.87748 3 180
 6335 1 0.59971 1 0
 6336 1 0.00000 3 0
 6337 1 0.48977 3 0
 6338 1 0.36982 3 180
 6339 1 2.73869 3 180
 6340 1 0.15992 3 180
 6341 1 6.99666 2 180
 6342 1 0.19491 3 0
 6343 1 0.19491 3 0
 6344 1 0.19491 3 0
 6345 1 0.19990 3 0
 6346 1 0.19990 3 0
 6347 2 0.89957 2 0 0.69967 3 0
 6348 1 0.49976 4 180
 6349 1 0.24988 3 0
 6350 1 1.76915 3 0
 6351 2 1.83912 1 180 0.95954 3 180
 6352 1 4.49785 2 180
 6353 1 2.99857 2 180
 6354 1 0.21650 3 0
 6355 1 0.18381 3 0
 6356 1 0.21650 3 0
 6357 1 0.21650 3 0
 6358 1 13.99331 2 180
 6359 1 11.99427 2 180
 6360 1 3.99809 2 180
 6361 1 5.49737 2 180
 6362 1 6.74847 2 180
 6363 1 6.74847 2 180
 6364 2 0.17652 1 0 0.06717 3 0
 6365 1 0.08966 3 0
 6366 2 0.17652 1 0 0.06717 3 0
 6367 1 0.08966 3 0
 6368 2 3.25844 1 180 0.23989 2 180
 6369 1 0.00000 6 0
 6370 1 1.02831 2 180
 6371 1 1.05709 3 180
 6372 1 0.97473 3 0
 6373 1 1.02831 2 180
 6374 1 1.05709 3 180
 6375 1 0.97473 3 0
 6376 2 0.88957 2 180 0.09995 4 0
 6377 1 5.99713 2 180
 6378 1 12.49403 2 180
 6379 1 0.09995 2 180
 6380 1 1.59924 2 180
 6381 1 2.09900 2 180
 6382 1 0.01000 1 0
 6383 1 0.07696 3 0
 6384 1 0.99952 2 180
 6385 1 0.99952 2 180
 6386 1 4.49785 2 180
 6387 1 4.49785 2 180
 6388 1 0.09995 2 180
 6389 1 4.49785 2 180
 6390 1 3.69823 2 180
 6391 1 0.99952 2 180
 6392 1 3.49833 2 180
 6393 1 3.49833 2 180
 6394 1 2.79866 2 180
 6395 1 2.79866 2 180
 6396 1 2.59876 2 180
 6397 1 0.79962 2 180
 6398 1 2.19895 2 180
 6399 1 2.19895 2 180
 6400 1 0.98263 2 180
 6401 1 3.09852 2 180
 6402 1 2.03493 3 0
 6403 1 0.49976 2 0
 6404 1 0.49976 2 0
 6405 1 0.28626 2 180
 6406 2 1.69919 2 0 3.09852 3 0
 6407 1 3.09852 2 180
 6408 1 0.49976 2 180
 6409 1 0.38282 2 180
 6410 1 0.00000 3 0
 6411 1 2.04902 3 0
 6412 1 1.49928 3 0
 6413 1 1.49928 3 0
 6414 1 1.89909 3 0
 6415 1 1.99904 2 180
 6416 1 1.99904 2 180
 6417 1 1.49928 2 180
 6418 1 4.29795 2 180
 6419 1 4.42069 2 180
 6420 1 3.09852 2 180
 6421 1 3.09852 2 180
 6422 1 0.00000 3 0
 6423 1 0.49976 2 0
 6424 1 0.49976 2 0
 6425 1 0.00000 2 180
 6426 1 0.00000 2 180
 6427 1 0.00000 3 0
 6428 1 4.99761 2 180
 6429 1 1.69919 2 180
 6430 1 0.00000 3 0
 6431 1 2.99857 3 0
 6432 1 0.56973 3 0
 6433 1 0.56973 3 0
 6434 1 12.47124 2 180
 6435 1 3.05634 2 180
 6436 1 0.33484 2 180
 6437 1 3.55470 2 180
 6438 1 1.50048 2 180
 6439 1 4.18220 2 180
 6440 1 4.49785 2 180
 6441 1 0.99952 2 180
 6442 1 1.07009 2 180
 6443 1 4.55942 2 180
 6444 1 2.99857 2 180
 6445 1 2.69871 2 180
 6446 1 0.99952 2 180
 6447 1 6.29699 2 180
 6448 1 0.00000 2 180
 6449 1 6.29699 2 180
 6450 1 3.09852 2 180
 6451 1 0.99952 2 180
 6452 1 2.39885 2 180
 6453 1 2.39885 2 180
 6454 1 0.19990 3 0
 6455 1 0.19990 3 0
 6456 2 1.99904 1 180 0.79962 2 0
 6457 1 0.19990 3 0
 6458 1 0.19990 3 0
 6459 1 0.19990 3 0
 6460 1 0.19990 3 0
 6461 1 0.19990 3 0
 6462 1 0.19990 3 0
 6463 1 0.19990 3 0
 6464 1 0.00000 1 180
 6465 1 0.19990 1 180
 6466 1 0.19990 1 180
 6467 1 0.00000 1 0
 6468 1 0.15992 3 0
 6469 3 0.84959 1 180 0.37982 2 180 0.34983 3 0
 6470 1 0.19491 3 0
 6471 1 0.19491 3 0
 6472 5 0.20990 1 180 0.38981 2 0 0.34983 3 180 0.10995 4 0 0.08996 6 180
 6473 5 0.20990 1 180 0.38981 2 0 0.34983 3 180 0.10995 4 0 0.08996 6 180
 6474 1 0.19491 3 0
 6475 1 0.15992 3 0
 6476 1 0.19990 1 180
 6477 1 0.19990 1 180
 6478 1 0.00000 1 0
 6479 3 1.99904 1 0 1.79914 2 0 0.49976 3 0
 6480 3 1.99904 1 0 1.79914 2 0 0.49976 3 0
 6481 3 0.59971 1 180 0.29986 2 0 0.49976 3 0
 6482 1 0.15992 3 0
 6483 2 0.90957 1 180 0.49976 2 0
 6484 2 0.90957 1 180 0.49976 2 0
 6485 3 0.09995 1 180 0.79962 2 0 0.58972 3 0
 6486 1 0.19990 3 0
 6487 1 0.30735 3 0
 6488 2 0.44669 2 0 0.46748 3 0
 6489 1 0.26187 3 180
 6490 1 0.49976 2 180
 6491 1 1.19943 2 180
 6492 1 0.99952 2 180
 6493 1 0.49976 2 180
 6494 1 3.69823 2 180
 6495 1 2.99857 2 180
 6496 1 0.49976 2 180
 6497 1 2.99857 2 180
 6498 1 0.99952 2 180
 6499 1 0.24988 2 180
 6500 1 1.01951 2 180
 6501 1 5.37743 2 180
 6502 1 3.09852 2 180
 6503 1 3.09852 2 180
 6504 1 0.19990 2 0
 6505 1 0.22989 2 180
 6506 1 0.79962 1 180
 6507 1 0.09995 6 180
 6508 2 0.38981 2 180 0.03998 4 0
 6509 1 0.09995 2 0
 6510 1 0.09995 2 0
 6511 2 0.14993 3 0 0.09995 4 0
 6512 1 0.99952 2 180
 6513 1 0.99952 2 180
 6514 1 0.05997 4 0
 6515 2 1.89909 1 180 0.19990 2 0
 6516 1 0.74964 2 0
 6517 1 0.54974 3 0
 6518 1 0.45978 3 0
 6519 1 0.01000 2 0
 6520 1 1.28938 2 180
 6521 3 1.79914 1 0 2.79866 2 180 0.99952 3 0
 6522 3 1.39933 1 0 0.99952 2 180 1.29938 3 0
 6523 3 0.40980 1 180 0.98953 2 180 0.09995 3 0
 6524 1 0.29986 1 180
 6525 1 1.29938 1 180
 6526 1 0.00000 3 0
 6527 1 0.29986 1 180
 6528 1 0.99952 1 180
 6529 1 9.99522 2 180
 6530 1 4.99761 2 180
 6531 1 1.99904 2 180
 6532 1 1.99904 2 180
 6533 1 1.99904 2 180
 6534 1 1.99904 2 180
 6535 1 2.99857 2 180
 6536 1 0.99952 3 0
 6537 1 0.00000 3 0
 6538 1 0.19491 3 0
 6539 1 0.99952 3 0
 6540 1 0.00000 3 0
 6541 1 3.09852 2 180
 6542 1 3.09852 2 180
 6543 1 5.99713 2 180
 6544 1 1.19943 2 180
 6545 1 0.99952 2 180
 6546 1 0.49976 2 180
 6547 1 2.19895 2 180
 6548 1 1.52927 2 180
 6549 1 0.98953 2 180
 6550 1 5.99713 2 180
 6551 1 3.99809 2 180
 6552 1 1.39933 2 180
 6553 1 0.85959 2 180
 6554 2 0.99952 1 180 0.99952 2 0
 6555 1 0.80961 3 0
 6556 1 0.45978 3 0
 6557 1 0.02999 2 180
 6558 1 0.99952 2 180
 6559 1 6.99666 2 180
 6560 1 1.99904 2 180
 6561 1 1.99904 2 180
 6562 2 0.79962 1 180 0.69967 3 0
 6563 1 0.00000 3 0
 6564 1 0.19990 3 180
 6565 1 0.00000 1 180
 6566 2 1.29938 1 0 0.00000 2 0
 6567 1 0.00000 3 0
 6568 1 3.09852 2 180
 6569 1 3.09852 2 180
 6570 1 3.09852 2 180
 6571 1 3.09852 2 180
 6572 1 4.19799 2 180
 6573 1 3.09852 2 180
 6574 1 3.09852 2 180
 6575 1 4.49785 2 180
 6576 1 3.99809 2 180
 6577 1 2.99857 2 180
 6578 1 2.99857 2 180
 6579 1 0.22989 2 180
 6580 1 0.00200 6 0
 6581 1 0.00200 6 0
 6582 1 1.19943 2 180
 6583 2 1.19943 2 180 0.99952 3 180
 6584 1 0.49976 2 180
 6585 1 0.98953 2 180
 6586 1 0.59352 2 180
 6587 1 0.59352 2 180
 6588 1 3.09852 2 180
 6589 1 4.49785 2 180
 6590 1 1.49928 2 180
 6591 1 4.19799 2 180
 6592 1 1.19943 2 180
 6593 1 3.49833 2 180
 6594 1 0.99952 2 180
 6595 1 0.99952 2 180
 6596 1 1.79914 2 180
 6597 1 0.99952 2 180
 6598 1 3.99809 2 180
 6599 1 0.59971 2 180
 6600 1 0.99952 2 180
 6601 1 0.99952 2 180
 6602 1 1.99904 2 180
 6603 1 3.49833 2 180
 6604 1 4.99761 3 180
 6605 1 0.24988 2 180
 6606 1 3.09852 2 180
 6607 1 0.74964 3 180
 6608 1 0.49976 3 0
 6609 1 0.49976 2 180
 6610 1 0.24988 2 180
 6611 1 1.97546 2 180
 6612 1 1.97546 2 180
 6613 1 2.39885 2 180
 6614 1 1.97546 2 180
 6615 1 1.97546 2 180
 6616 1 0.04618 3 180
 6617 1 0.04618 3 180
 6618 1 0.29136 3 180
 6619 4 0.39981 1 0 0.89957 2 0 0.33984 3 0 0.11994 4 0
 6620 1 2.39885 2 180
 6621 1 0.08666 3 0
 6622 3 0.56113 1 180 0.98613 2 180 0.16082 3 180
 6623 1 0.19601 3 0
 6624 3 1.82803 1 0 0.64549 2 0 0.02789 3 180
 6625 1 1.58384 2 180
 6626 1 0.99952 2 180
 6627 1 3.04674 2 180
 6628 1 0.89957 2 180
 6629 1 1.92908 2 180
 6630 1 2.99857 2 180
 6631 1 4.99761 2 180
 6632 1 4.99761 2 180
 6633 1 0.99952 2 180
 6634 1 2.99857 2 180
 6635 1 2.79866 2 180
 6636 1 5.99713 2 180
 6637 1 0.00000 2 0
 6638 1 0.35983 2 0
 6639 1 1.49928 2 0
 6640 1 1.19943 2 180
 6641 1 3.09852 2 180
 6642 1 1.19943 2 180
 6643 1 0.99952 2 180
 6644 1 0.22989 2 180
 6645 1 0.22989 2 180
 6646 1 0.00200 6 0
 6647 1 0.00300 6 180
 6648 1 0.99952 2 180
 6649 3 0.19990 1 0 1.09947 2 180 0.59971 3 0
 6650 3 1.49928 1 180 2.59876 2 180 0.17991 3 180
 6651 1 0.49976 2 180
 6652 2 1.09947 1 180 1.99904 2 180
 6653 1 1.59924 2 180
 6654 4 0.37482 1 180 0.93955 2 180 0.18991 3 0 0.15992 4 0
 6655 1 0.79962 2 180
 6656 1 0.79962 2 180
 6657 1 1.59924 2 180
 6658 1 2.99857 2 180
 6659 1 3.39838 2 180
 6660 1 6.99666 2 180
 6661 1 10.99474 2 180
 6662 1 1.19943 2 180
 6663 1 0.99952 2 180
 6664 1 2.99857 2 180
 6665 1 0.19990 2 180
 6666 1 0.19990 2 180
 6667 1 1.99904 2 180
 6668 1 1.99904 2 180
 6669 1 0.59971 2 180
 6670 1 3.64826 2 180
 6671 1 2.44883 2 180
 6672 1 0.49976 2 180
 6673 1 1.49928 2 180
 6674 1 2.99857 2 180
 6675 1 2.99857 2 180
 6676 1 5.49737 2 180
 6677 1 10.99474 2 180
 6678 1 10.99474 2 180
 6679 1 0.99952 2 180
 6680 1 3.29842 2 180
 6681 1 10.99474 2 180
 6682 1 0.59971 2 180
 6683 1 0.59971 2 180
 6684 1 2.99857 2 180
 6685 1 10.99474 2 180
 6686 1 10.99474 2 180
 6687 1 1.79914 2 180
 6688 1 1.99904 2 180
 6689 3 0.79962 1 180 4.81770 2 180 0.01999 3 180
 6690 2 1.59924 1 0 6.84673 2 180
 6691 1 1.99904 2 180
 6692 1 3.99809 2 180
 6693 1 3.19847 2 180
 6694 1 1.99904 2 180
 6695 1 1.99904 2 180
 6696 1 1.19943 2 180
 6697 1 0.08996 2 180
 6698 1 0.41980 2 0
 6699 3 2.79866 1 0 0.51975 2 0 0.01000 4 0
 6700 1 2.79866 2 180
 6701 2 1.19943 1 0 1.29938 2 180
 6702 1 1.99904 2 180
 6703 1 1.44931 1 0
 6704 1 1.44931 1 0
 6705 1 1.99904 2 180
 6706 1 1.99904 2 180
 6707 1 10.99474 2 180
 6708 1 0.69967 2 180
 6709 1 7.49642 2 180
 6710 1 7.29651 2 180
 6711 1 0.59971 2 180
 6712 1 0.09995 3 0
 6713 1 0.12994 3 0
 6714 1 0.00000 3 0
 6715 1 0.19491 3 0
 6716 1 0.00000 3 0
 6717 1 0.00000 3 0
 6718 1 0.00000 3 0
 6719 1 0.14993 3 0
 6720 1 0.14993 3 0
 6721 1 0.14993 3 0
 6722 1 0.00000 3 0
 6723 1 0.00000 3 0
 6724 1 0.00000 3 0
 6725 1 0.14993 3 0
 6726 1 0.00000 3 0
 6727 1 0.00000 3 0
 6728 1 0.00000 3 0
 6729 1 0.00000 3 0
 6730 1 0.00000 3 0
 6731 1 0.00000 3 0
 6732 1 0.00000 3 0
 6733 1 0.00000 3 0
 6734 1 0.49976 2 180
 6735 1 2.79866 2 180
 6736 1 5.99713 2 180
 6737 1 2.19895 2 180
 6738 1 2.19895 2 180
 6739 1 0.00000 2 180
 6740 1 0.00000 2 180
 6741 1 0.00000 2 180
 6742 1 0.98953 2 180
 6743 1 1.59924 2 180
 6744 1 5.99713 2 180
 6745 1 1.09947 2 180
 6746 1 8.99570 2 180
 6747 1 1.19943 2 180
 6748 1 0.99952 2 180
 6749 1 0.14993 2 180
 6750 1 3.19847 2 180
 6751 3 2.49881 1 0 2.69871 2 180 0.84959 3 0
 6752 1 0.59971 2 180
 6753 1 0.59971 2 180
 6754 1 1.24940 2 180
 6755 1 10.99474 2 180
 6756 1 10.99474 2 180
 6757 1 0.89957 2 180
 6758 1 2.61875 2 180
 6759 1 10.99474 2 180
 6760 1 8.99570 2 180
 6761 1 1.79914 2 180
 6762 1 1.99904 2 180
 6763 1 0.00300 6 180
 6764 2 1.59924 1 0 6.84673 2 180
 6765 1 1.79914 2 180
 6766 1 5.49737 2 180
 6767 1 1.89909 2 180
 6768 1 0.19990 2 180
 6769 1 0.59971 2 180
 6770 1 0.19990 2 180
 6771 1 0.19990 2 180
 6772 1 5.49737 2 180
 6773 1 3.59828 2 180
 6774 1 10.99474 2 180
 6775 1 1.99904 2 180
 6776 1 1.79914 2 180
 6777 1 1.99904 2 180
 6778 1 0.49976 2 180
 6779 1 0.19990 2 180
 6780 1 0.19990 2 180
 6781 1 2.59876 2 180
 6782 1 2.59876 2 180
 6783 1 2.59876 2 180
 6784 3 0.49976 1 180 1.79914 2 180 0.39981 3 180
 6785 1 2.59876 2 180
 6786 1 0.49976 2 180
 6787 2 1.39933 1 180 1.29938 2 180
 6788 1 2.39885 2 180
 6789 1 0.99952 2 180
 6790 1 3.43836 2 180
 6791 1 0.41980 2 0
 6792 1 1.97905 2 180
 6793 2 2.39885 1 180 2.99857 2 180
 6794 2 1.39933 1 180 1.29938 2 180
 6795 1 2.39885 2 180
 6796 2 2.11899 2 180 0.18991 4 180
 6797 2 2.11899 2 180 0.18991 4 180
 6798 2 2.11899 2 180 0.18991 4 180
 6799 2 1.39933 1 180 1.29938 2 180
 6800 1 2.39885 2 180
 6801 1 1.99904 2 180
 6802 1 1.99904 2 180
 6803 1 1.99904 2 180
 6804 1 10.99474 2 180
 6805 1 10.99474 2 180
 6806 1 1.19943 2 180
 6807 1 1.19943 2 180
 6808 1 10.99474 2 180
 6809 1 1.99904 2 180
 6810 1 2.99857 2 180
 6811 1 1.59924 2 180
 6812 1 10.99474 2 180
 6813 1 3.09852 2 180
 6814 1 2.39885 2 180
 6815 1 2.39885 2 180
 6816 1 2.39885 2 180
 6817 1 1.15775 2 180
 6818 1 1.49828 2 180
 6819 1 3.99809 2 180
 6820 1 0.00000 2 180
 6821 1 3.99809 2 180
 6822 1 3.99809 2 180
 6823 1 2.49881 2 180
 6824 1 0.00000 2 180
 6825 1 1.99904 2 180
 6826 1 0.99952 2 180
 6827 1 1.99904 2 180
 6828 1 1.79914 2 180
 6829 1 3.99809 2 180
 6830 1 0.19491 3 0
 6831 1 0.19491 3 0
 6832 1 0.19990 3 0
 6833 1 0.19491 3 0
 6834 3 1.34935 1 180 0.99952 2 0 0.19990 3 180
 6835 3 1.34935 1 180 0.99952 2 0 0.19990 3 180
 6836 1 0.19990 3 0
 6837 1 0.19491 3 0
 6838 1 2.57877 2 180
 6839 1 2.39885 2 180
 6840 1 2.39885 2 180
 6841 1 0.01000 1 0
 6842 2 4.79771 1 180 0.44978 2 180
 6843 1 0.04998 1 0
 6844 1 0.10995 3 0
 6845 1 0.72365 3 0
 6846 1 2.39885 2 180
 6847 1 2.99857 2 180
 6848 1 3.56829 2 180
 6849 1 3.56829 2 180
 6850 1 3.04994 2 180
 6851 1 1.82683 2 180
 6852 1 2.39885 2 180
 6853 1 2.99857 2 180
 6854 1 2.99857 2 180
 6855 1 2.39885 2 180
 6856 1 2.99857 2 180
 6857 1 2.39885 2 180
 6858 1 0.13853 1 180
 6859 1 2.39885 2 180
 6860 1 2.39885 2 180
 6861 1 2.39885 2 180
 6862 1 3.09852 2 180
 6863 1 0.99952 2 180
 6864 1 0.39981 2 180
 6865 1 2.79866 2 180
 6866 1 2.39885 2 180
 6867 1 0.99952 2 180
 6868 1 2.59876 2 180
 6869 1 1.49928 2 180
 6870 1 2.79866 2 180
 6871 1 3.39838 2 180
 6872 1 2.39885 2 180
 6873 1 2.39885 2 180
 6874 1 4.19799 2 180
 6875 1 4.19799 2 180
 6876 1 4.19799 2 180
 6877 1 2.99857 2 180
 6878 1 2.79866 2 180
 6879 1 2.79866 2 180
 6880 1 2.99857 2 180
 6881 1 2.99857 2 180
 6882 1 3.99809 2 180
 6883 1 0.00000 2 180
 6884 1 2.99857 2 180
 6885 1 2.99857 2 180
 6886 1 0.00000 2 180
 6887 1 0.00000 2 180
 6888 1 0.79962 2 180
 6889 1 2.99857 2 180
 6890 1 0.00000 2 180
 6891 1 0.00000 2 180
 6892 1 0.00000 2 180
 6893 1 0.00000 2 180
 6894 1 2.39885 2 180
 6895 1 0.00000 2 180
 6896 1 0.00000 2 180
 6897 1 2.39885 2 180
 6898 1 0.99952 2 180
 6899 1 0.99952 2 180
 6900 1 2.39885 2 180
 6901 1 3.39838 2 180
 6902 1 1.99904 2 180
 6903 1 4.19799 2 180
 6904 1 4.19799 2 180
 6905 1 4.19799 2 180
 6906 1 4.19799 2 180
 6907 1 2.39885 2 180
 6908 1 4.19799 2 180
 6909 1 4.19799 2 180
 6910 1 2.39885 2 180
 6911 1 2.39885 2 180
 6912 1 3.99809 2 180
 6913 1 4.19799 2 180
 6914 1 0.99952 2 180
 6915 1 0.00000 2 180
 6916 1 3.99809 2 180
 6917 1 2.69871 2 180
 6918 1 0.00000 2 180
 6919 1 2.69871 2 180
 6920 1 5.79723 2 180
 6921 1 5.79723 2 180
 6922 1 5.24749 2 180
 6923 1 4.59780 2 180
 6924 1 4.59780 2 180
 6925 1 0.29986 2 180
 6926 1 1.19943 2 180
 6927 1 0.29986 2 180
 6928 1 7.29651 2 180
 6929 1 2.79866 2 180
 6930 1 0.00000 2 180
 6931 1 1.89909 2 180
 6932 1 2.99857 2 180
 6933 1 3.99809 2 180
 6934 1 0.49976 2 180
 6935 1 0.99952 2 180
 6936 1 0.99952 2 180
 6937 1 0.79962 2 180
 6938 1 5.99713 2 180
 6939 1 2.39885 2 180
 6940 1 2.39885 2 180
 6941 1 0.99952 2 180
 6942 1 0.99952 2 180
 6943 1 3.39838 2 180
 6944 1 3.39838 2 180
 6945 1 2.39885 2 180
 6946 1 1.99904 2 180
 6947 1 0.00000 2 180
 6948 1 0.00000 2 180
 6949 1 4.19799 2 180
 6950 1 4.19799 2 180
 6951 1 5.59732 2 180
 6952 1 4.59780 2 180
 6953 1 4.79771 2 180
 6954 1 0.29986 2 180
 6955 1 0.29986 2 180
 6956 1 0.99952 2 180
 6957 1 1.19943 2 180
 6958 1 0.29986 2 180
 6959 1 7.29651 2 180
 6960 1 7.29651 2 180
 6961 1 2.79866 2 180
 6962 1 4.59780 2 180
 6963 1 0.99952 2 180
 6964 1 4.89766 2 180
 6965 1 0.00000 2 180
 6966 1 0.54974 2 180
 6967 1 5.49737 2 180
 6968 1 4.59780 2 180
 6969 1 0.00000 2 180
 6970 1 0.49976 2 180
 6971 1 7.29651 2 180
 6972 1 7.29651 2 180
 6973 1 8.49594 2 180
 6974 1 8.49594 2 180
 6975 1 5.99713 2 180
 6976 1 5.49737 2 180
 6977 1 0.99952 2 180
 6978 1 3.39838 2 180
 6979 1 1.49928 2 180
 6980 1 1.49928 2 180
 6981 1 3.29842 2 180
 6982 1 1.99904 2 180
 6983 1 3.99809 2 180
 6984 1 1.99904 2 180
 6985 1 4.19799 2 180
 6986 1 4.19799 2 180
 6987 1 6.99666 2 180
 6988 1 0.99952 2 180
 6989 1 2.99857 2 180
 6990 1 7.39646 2 180
 6991 1 3.99809 2 180
 6992 1 13.99331 2 180
 6993 1 0.00000 2 180
 6994 1 0.00000 2 180
 6995 1 2.59876 2 180
 6996 1 1.69919 2 180
 6997 1 1.59924 2 180
 6998 1 1.59924 2 180
 6999 1 0.89957 2 180
 7000 1 13.99331 2 180
 7001 1 0.00000 2 180
 7002 1 10.99474 2 180
 7003 1 10.99474 2 180
 7004 1 0.99952 2 180
 7005 1 0.00000 2 180
 7006 1 10.99474 2 180
 7007 1 1.59924 2 180
 7008 1 1.59924 2 180
 7009 1 1.59924 2 180
 7010 1 0.89957 2 180
 7011 1 13.99331 2 180
 7012 1 1.59924 2 180
 7013 1 0.49976 2 180
 7014 1 0.49976 2 180
 7015 1 0.75964 2 0
 7016 1 10.99474 2 180
 7017 1 2.49881 2 180
 7018 1 2.49881 2 180
 7019 1 6.99666 2 180
 7020 1 0.44978 2 180
 7021 1 10.99474 2 180
 7022 1 1.59924 2 180
 7023 1 1.59924 2 180
 7024 1 3.19847 2 180
 7025 1 2.99857 2 180
 7026 1 2.99857 2 180
 7027 1 0.00000 2 180
 7028 1 2.39885 2 180
 7029 1 3.09852 2 180
 7030 1 3.09852 2 180
 7031 1 0.26987 3 0
 7032 1 0.25988 3 0
 7033 1 0.25468 3 0
 7034 1 0.25468 3 0
 7035 1 0.15792 3 0
 7036 1 1.17174 3 0
 7037 1 0.86459 3 180
 7038 1 0.15792 3 0
 7039 1 0.24988 3 0
 7040 1 0.15792 3 0
 7041 1 0.15792 3 0
 7042 2 0.59971 1 0 0.69967 3 0
 7043 1 0.14993 3 0
 7044 1 0.19990 3 0
 7045 1 0.14993 3 0
 7046 1 0.14993 3 0
 7047 1 0.14993 3 0
 7048 3 1.49928 1 0 0.29986 2 180 0.49976 3 0
 7049 1 0.19491 3 0
 7050 3 0.59971 1 180 0.64969 2 0 0.04998 3 0
 7051 1 0.14993 3 0
 7052 1 0.14993 3 0
 7053 1 0.14993 3 0
 7054 1 0.14993 3 0
 7055 1 0.69967 3 0
 7056 1 0.14993 3 0
 7057 1 0.14993 3 0
 7058 1 0.14993 3 0
 7059 2 0.59971 1 0 0.69967 3 0
 7060 1 0.14993 3 0
 7061 1 0.14993 3 0
 7062 1 0.00000 3 0
 7063 1 0.14993 3 0
 7064 1 0.49976 1 180
 7065 1 1.09947 1 180
 7066 1 0.39981 4 0
 7067 1 0.99952 3 0
 7068 1 0.00000 3 0
 7069 2 0.49976 1 180 0.69967 3 0
 7070 1 0.19990 2 0
 7071 3 2.39885 1 180 0.39981 2 180 1.49928 3 180
 7072 3 1.49928 1 0 0.29986 2 180 0.31985 3 0
 7073 1 0.20990 3 180
 7074 1 0.00000 3 0
 7075 1 0.19491 3 0
 7076 1 0.00000 3 0
 7077 1 0.00000 3 0
 7078 3 0.39981 1 180 0.24988 2 0 0.63969 3 0
 7079 3 0.39981 1 180 0.24988 2 0 0.63969 3 0
 7080 1 0.07996 3 0
 7081 1 0.07996 3 0
 7082 1 1.09947 1 180
 7083 1 1.09947 1 180
 7084 1 1.09947 1 180
 7085 1 0.75964 3 0
 7086 1 0.00000 3 180
 7087 1 0.19990 3 180
 7088 1 0.00000 3 0
 7089 3 1.70918 1 159 0.36982 2 165 0.57972 3 47
 7090 3 0.15992 1 180 0.01000 2 180 0.16992 3 180
 7091 1 0.19491 3 0
 7092 1 0.19990 3 0
 7093 1 0.19990 3 0
 7094 1 0.19990 3 0
 7095 1 0.19491 3 0
 7096 1 0.19990 3 0
 7097 1 0.19990 3 0
 7098 1 0.19990 3 0
 7099 1 0.19990 3 0
 7100 1 0.19990 3 0
 7101 1 0.03998 3 0
 7102 1 0.19491 3 0
 7103 1 0.19491 3 0
 7104 1 0.19491 3 0
 7105 1 0.19491 3 0
 7106 1 0.19491 3 0
 7107 1 0.19990 3 0
 7108 1 0.12994 3 0
 7109 1 0.29986 3 0
 7110 1 0.19990 3 0
 7111 1 0.17991 3 0
 7112 1 0.19491 3 0
 7113 1 0.19491 3 0
 7114 1 0.19491 3 0
 7115 1 0.19491 3 0
 7116 1 0.19491 3 0
 7117 1 0.29206 3 0
 7118 1 0.19491 3 0
 7119 1 0.18491 3 0
 7120 1 0.18491 3 0
 7121 1 0.19491 3 0
 7122 1 0.19491 3 0
 7123 1 0.19491 3 0
 7124 1 0.19491 3 0
 7125 1 0.19491 3 0
 7126 1 0.19491 3 0
 7127 1 0.15992 3 0
 7128 1 0.19990 3 0
 7129 1 0.15992 3 0
 7130 1 0.04998 3 0
 7131 1 0.04998 3 0
 7132 1 0.19491 3 0
 7133 1 0.14993 3 0
 7134 1 0.14993 3 0
 7135 1 0.00000 1 0
 7136 1 0.00000 1 0
 7137 1 0.00000 1 0
 7138 1 0.41980 3 0
 7139 1 0.00000 1 0
 7140 1 0.00000 1 0
 7141 1 0.00000 1 0
 7142 1 0.00000 1 0
 7143 1 0.01000 3 0
 7144 1 0.28386 3 0
 7145 1 0.34983 3 0
 7146 1 0.19990 3 0
 7147 1 0.00000 3 0
 7148 1 0.00000 3 0
 7149 1 0.00000 3 0
 7150 1 0.00000 3 0
 7151 1 0.00000 3 0
 7152 1 0.19491 3 0
 7153 1 0.27987 3 0
 7154 1 0.27987 3 0
 7155 1 0.19990 3 0
 7156 1 0.00000 1 0
 7157 1 0.00000 1 0
 7158 1 0.19990 3 0
 7159 1 0.19990 3 0
 7160 1 0.19990 3 0
 7161 1 0.19990 3 0
 7162 1 0.19990 3 0
 7163 1 0.03998 3 0
 7164 1 0.19491 3 0
 7165 1 0.19491 3 0
 7166 1 0.19491 3 0
 7167 1 0.19990 3 0
 7168 1 0.19491 3 0
 7169 1 0.19491 3 0
 7170 1 0.49676 3 0
 7171 1 0.19491 3 0
 7172 1 0.19491 3 0
 7173 1 0.15992 3 0
 7174 1 0.15992 3 0
 7175 1 0.15992 3 0
 7176 1 0.00000 6 180
 7177 1 0.00000 6 180
 7178 1 0.00000 3 0
 7179 1 0.00000 3 0
 7180 1 0.04998 3 0
 7181 1 0.09995 3 0
 7182 1 0.09995 3 0
 7183 1 0.09995 3 0
 7184 1 0.27987 3 0
 7185 1 0.27987 3 0
 7186 1 0.00000 1 0
 7187 1 0.00000 1 0
 7188 1 0.19990 5 180
 7189 2 0.63969 5 0 0.80961 6 180
 7190 1 0.18991 3 0
 7191 1 0.18991 3 0
 7192 1 0.13993 3 0
 7193 1 0.00000 3 0
 7194 1 0.00000 3 0
 7195 1 0.18991 3 0
 7196 1 0.18991 3 0
 7197 1 0.18991 3 0
 7198 1 0.14993 3 0
 7199 1 0.13993 3 0
 7200 1 0.00000 3 0
 7201 1 0.18991 3 0
 7202 1 0.96734 3 0
 7203 1 0.18991 3 0
 7204 1 0.13993 3 0
 7205 1 0.14993 3 0
 7206 1 0.19491 3 0
 7207 1 0.13993 3 0
 7208 1 0.19491 3 0
 7209 1 0.19491 3 0
 7210 1 0.04998 3 0
 7211 1 0.19491 3 0
 7212 1 0.04998 3 0
 7213 1 0.19491 3 0
 7214 1 0.14993 3 0
 7215 1 0.14993 3 0
 7216 1 0.35983 3 0
 7217 1 0.14993 3 0
 7218 1 0.24988 2 180
 7219 2 0.24988 2 180 0.19491 3 0
 7220 1 0.24988 2 180
 7221 1 0.19491 3 0
 7222 1 0.19491 3 0
 7223 1 0.79962 3 0
 7224 1 0.09995 3 0
 7225 1 2.03773 3 180
 7226 1 0.27237 3 0
 7227 1 0.14993 3 0
 7228 1 0.01000 3 0
 7229 1 0.19491 3 0
 7230 1 0.19491 3 0
 7231 1 0.19491 3 0
 7232 1 0.19491 3 0
 7233 1 0.01000 3 0
 7234 1 0.01000 3 0
 7235 1 0.26008 3 180
 7236 1 0.26008 3 180
 7237 1 0.00000 3 0
 7238 1 0.02949 3 0
 7239 1 0.00000 3 0
 7240 2 0.49976 1 0 0.59971 3 180
 7241 3 0.59971 1 0 1.79914 2 180 0.47977 3 0
 7242 2 0.29986 1 0 0.79962 2 180
 7243 2 0.49976 1 0 0.59971 3 180
 7244 1 0.00000 3 0
 7245 1 0.00000 3 0
 7246 1 0.17991 3 0
 7247 1 0.29986 3 0
 7248 1 0.29986 3 0
 7249 1 0.19491 3 0
 7250 1 0.28486 3 0
 7251 1 0.61850 3 180
 7252 1 0.61850 3 180
 7253 1 0.60171 3 0
 7254 2 0.39981 1 180 0.59971 2 0
 7255 1 0.00000 1 0
 7256 1 0.41340 3 0
 7257 1 0.29896 3 180
 7258 1 0.14993 3 0
 7259 1 0.45978 3 0
 7260 1 0.14993 3 0
 7261 1 0.19491 3 0
 7262 1 0.04998 3 0
 7263 1 0.04998 3 0
 7264 1 0.07996 3 0
 7265 1 0.07996 3 0
 7266 1 0.07996 3 0
 7267 1 0.19491 3 0
 7268 1 0.14993 3 0
 7269 1 0.00000 3 0
 7270 1 0.00000 3 180
 7271 1 1.19943 3 180
 7272 1 0.29986 3 0
 7273 1 0.00000 3 0
 7274 1 0.04768 3 0
 7275 2 0.92056 1 0 0.06267 2 0
 7276 1 0.04768 3 0
 7277 1 0.10445 3 0
 7278 1 0.19990 3 0
 7279 1 0.19491 3 0
 7280 1 0.19990 3 0
 7281 1 0.19990 3 0
 7282 1 0.19491 3 0
 7283 1 0.19990 3 0
 7284 1 0.00000 1 0
 7285 1 1.39933 1 0
 7286 2 2.74869 2 180 0.29986 4 0
 7287 1 0.00000 1 0
 7288 1 1.39933 1 0
 7289 4 0.18991 1 180 0.99952 2 180 0.59971 3 0 0.07996 4 180
 7290 1 0.19491 3 0
 7291 3 0.81961 1 0 0.80961 2 0 0.34983 3 0
 7292 1 0.19491 3 0
 7293 1 0.19491 3 0
 7294 1 0.79962 3 0
 7295 1 0.19491 3 0
 7296 1 0.99952 3 0
 7297 1 0.24988 3 0
 7298 1 0.29986 3 0
 7299 1 1.42742 3 0
 7300 1 0.25988 3 0
 7301 2 0.76363 1 180 0.32415 3 0
 7302 1 0.17791 3 0
 7303 1 0.17791 3 0
 7304 1 0.00000 3 0
 7305 1 0.09995 3 0
 7306 1 0.00000 3 0
 7307 3 0.66348 1 0 0.35023 2 0 0.44199 3 0
 7308 1 0.17991 3 0
 7309 1 0.17791 3 0
 7310 1 0.17791 3 0
 7311 1 0.06927 3 0
 7312 1 0.19491 3 0
 7313 1 0.19491 3 0
 7314 1 0.19990 3 0
 7315 1 0.15992 3 0
 7316 1 0.19990 3 0
 7317 1 0.19990 3 0
 7318 1 0.19990 3 0
 7319 1 0.19990 3 0
 7320 1 0.19990 3 0
 7321 1 0.19990 3 0
 7322 1 0.19990 3 0
 7323 1 0.19990 3 0
 7324 1 0.10165 3 0
 7325 1 0.19990 3 0
 7326 1 0.19990 3 0
 7327 1 0.78203 3 0
 7328 1 2.14937 1 0
 7329 1 0.13793 3 0
 7330 3 0.41130 1 0 0.47697 2 0 0.52635 3 0
 7331 3 0.41130 1 0 0.47697 2 0 0.52635 3 0
 7332 2 0.97553 2 180 0.13973 3 0
 7333 3 0.24418 1 0 1.48969 2 0 0.04348 3 0
 7334 3 0.24418 1 0 1.48969 2 0 0.04348 3 0
 7335 1 0.19990 3 0
 7336 1 0.19491 3 0
 7337 1 0.19990 3 0
 7338 1 0.19990 3 0
 7339 2 0.89957 2 0 0.69967 3 0
 7340 1 0.49976 4 180
 7341 1 0.24988 3 0
 7342 1 0.19491 3 0
 7343 1 0.19491 3 0
 7344 1 0.15992 3 0
 7345 1 0.25988 3 0
 7346 1 0.15992 3 0
 7347 1 0.25988 3 0
 7348 1 0.25988 3 0
 7349 1 0.25988 3 0
 7350 1 0.25988 3 0
 7351 1 0.25988 3 0
 7352 1 0.09995 3 0
 7353 1 0.34983 3 0
 7354 1 0.01000 3 0
 7355 1 0.01000 3 0
 7356 1 0.19990 3 0
 7357 3 0.51495 1 0 0.85639 2 0 0.19591 3 0
 7358 1 0.15992 3 0
 7359 1 0.15992 3 0
 7360 3 0.93755 1 180 0.38372 2 0 0.17901 3 0
 7361 1 0.29986 3 0
 7362 1 0.29986 3 0
 7363 1 0.21989 3 0
 7364 1 0.16502 3 0
 7365 1 0.18491 3 0
 7366 1 0.18491 3 0
 7367 1 0.19491 3 0
 7368 1 0.19491 3 0
 7369 1 0.19491 3 0
 7370 1 0.19491 3 0
 7371 1 0.19491 3 0
 7372 1 0.19491 3 0
 7373 1 0.19491 3 0
 7374 1 0.19491 3 0
 7375 1 0.15992 3 0
 7376 2 0.01000 1 0 0.01999 3 0
 7377 2 0.49976 1 0 0.26987 3 0
 7378 1 0.00000 3 0
 7379 1 0.00000 3 0
 7380 1 0.00000 3 0
 7381 1 0.00000 3 0
 7382 1 0.15992 3 0
 7383 1 0.15992 3 0
 7384 1 0.14993 3 0
 7385 1 0.15992 3 0
 7386 1 0.15992 3 0
 7387 1 0.18991 3 0
 7388 1 0.19491 3 0
 7389 1 0.19491 3 0
 7390 1 0.19491 1 0
 7391 1 0.14993 3 0
 7392 1 0.14993 3 0
 7393 1 0.02699 1 180
 7394 1 0.09995 3 0
 7395 1 0.09995 3 0
 7396 1 0.09995 3 0
 7397 1 0.09995 3 0
 7398 1 0.09995 3 0
 7399 1 0.10995 3 180
 7400 1 0.10995 3 180
 7401 1 0.00000 3 0
 7402 1 0.00000 3 0
 7403 1 0.00000 3 0
 7404 1 0.00000 1 0
 7405 1 0.00000 3 0
 7406 1 0.04998 6 0
 7407 1 0.00000 3 0
 7408 1 0.00000 3 0
 7409 1 0.00000 3 0
 7410 1 0.41980 3 0
 7411 1 0.31985 3 0
 7412 1 0.92076 3 0
 7413 1 0.31985 3 0
 7414 1 0.00000 3 0
 7415 1 0.00000 3 0
 7416 1 0.00000 3 0
 7417 1 0.00000 3 0
 7418 1 0.14993 3 0
 7419 1 0.14993 3 0
 7420 1 0.01000 3 0
 7421 1 0.00000 3 180
 7422 1 0.00000 3 180
 7423 1 0.09995 3 0
 7424 1 0.09995 3 0
 7425 1 0.00000 3 180
 7426 1 0.04998 3 180
 7427 1 0.11654 3 180
 7428 1 0.00000 3 0
 7429 1 0.39981 3 0
 7430 1 0.79962 3 0
 7431 1 0.09995 3 0
 7432 1 0.04998 3 0
 7433 1 0.04998 3 0
 7434 1 0.01000 3 0
 7435 1 0.15273 3 0
 7436 1 0.20760 3 0
 7437 1 0.09495 3 0
 7438 1 0.09495 3 0
 7439 1 0.28386 3 0
 7440 1 0.28386 3 0
 7441 1 0.32265 3 0
 7442 1 0.05597 3 0
 7443 1 0.85239 3 0
 7444 1 0.00000 3 0
 7445 1 0.00000 3 0
 7446 1 0.00000 3 0
 7447 1 0.00000 3 0
 7448 1 0.00000 3 0
 7449 1 0.00000 3 0
 7450 1 0.00000 3 0
 7451 1 0.17991 3 0
 7452 1 0.19491 3 0
 7453 1 0.19491 3 0
 7454 1 0.89957 3 0
 7455 1 0.89957 3 0
 7456 1 0.09995 3 0
 7457 1 0.09995 3 0
 7458 1 0.09995 3 0
 7459 2 0.07317 1 0 0.15872 3 0
 7460 1 0.32974 3 0
 7461 1 0.41260 3 0
 7462 2 0.08756 1 0 0.31945 3 0
 7463 1 0.15792 3 0
 7464 1 0.15792 3 0
 7465 1 0.20010 3 0
 7466 1 0.36413 3 0
 7467 1 0.35983 3 0
 7468 1 0.05178 3 180
 7469 1 0.35983 3 0
 7470 1 0.19990 3 0
 7471 1 0.27987 3 0
 7472 1 0.27987 3 0
 7473 1 0.00280 3 0
 7474 1 0.12114 3 0
 7475 1 0.27987 3 0
 7476 1 0.27987 3 0
 7477 1 0.27987 3 0
 7478 1 0.28726 3 180
 7479 1 0.19990 3 0
 7480 1 0.18991 3 0
 7481 1 0.12494 3 0
 7482 1 0.15992 3 0
 7483 1 0.15992 3 0
 7484 1 0.00000 3 0
 7485 1 0.19990 3 0
 7486 1 0.19990 3 0
 7487 1 0.00000 3 0
 7488 1 0.00000 3 180
 7489 1 0.00000 3 0
 7490 1 0.00000 1 0
 7491 1 0.19990 3 0
 7492 1 0.19990 3 0
 7493 1 0.19990 3 0
 7494 1 0.19990 3 0
 7495 1 0.19990 3 0
 7496 1 0.19990 3 0
 7497 1 0.15992 3 0
 7498 1 0.15992 3 0
 7499 1 0.19491 3 0
 7500 1 0.19491 3 0
 7501 1 0.01499 6 180
 7502 1 0.14993 3 180
 7503 1 0.14993 3 180
 7504 1 0.00000 6 180
 7505 1 0.00000 3 0
 7506 1 0.00000 6 180
 7507 1 0.09995 3 0
 7508 1 0.09995 3 0
 7509 1 0.09995 3 0
 7510 1 0.09995 3 0
 7511 1 0.09995 3 0
 7512 1 0.09995 3 0
 7513 1 0.09995 3 0
 7514 1 0.09995 3 0
 7515 1 0.09995 3 0
 7516 1 0.19990 3 0
 7517 1 0.19990 3 0
 7518 1 0.19990 5 180
 7519 1 0.19491 3 0
 7520 1 0.19491 3 0
 7521 1 0.19491 3 0
 7522 1 0.14993 3 0
 7523 1 0.14993 3 0
 7524 1 0.14993 3 0
 7525 1 0.14993 3 0
 7526 1 0.19491 3 0
 7527 1 0.19491 3 0
 7528 2 0.63969 5 0 0.80961 6 180
 7529 1 0.00000 3 0
 7530 1 0.56973 3 0
 7531 1 0.00000 3 0
 7532 1 0.33814 3 180
 7533 1 0.29986 3 0
 7534 1 0.18991 3 0
 7535 1 0.13993 3 0
 7536 1 0.13993 3 0
 7537 1 0.13993 3 0
 7538 1 0.14993 3 0
 7539 1 0.13993 3 0
 7540 1 0.13993 3 0
 7541 1 0.13993 3 0
 7542 1 0.13993 3 0
 7543 1 0.13993 3 0
 7544 1 0.19491 3 0
 7545 1 0.19491 1 0
 7546 1 0.19491 3 0
 7547 1 0.00000 3 0
 7548 1 0.00000 3 0
 7549 1 0.14993 3 0
 7550 1 0.14993 3 0
 7551 1 0.14993 3 0
 7552 1 0.35983 3 0
 7553 1 0.14993 3 0
 7554 1 0.00000 3 0
 7555 1 0.59971 3 0
 7556 1 0.00000 3 0
 7557 1 0.00000 3 180
 7558 1 0.00000 3 180
 7559 1 0.09995 3 0
 7560 1 0.09995 3 0
 7561 1 0.00000 3 0
 7562 1 0.09995 3 0
 7563 1 0.00000 3 0
 7564 1 0.09625 3 0
 7565 1 0.09625 3 0
 7566 1 0.00000 3 0
 7567 1 0.00000 3 0
 7568 1 0.47977 3 0
 7569 1 0.29986 3 0
 7570 1 0.00000 3 0
 7571 1 3.58389 3 0
 7572 1 2.12279 3 0
 7573 1 0.00000 3 0
 7574 1 0.00000 3 0
 7575 1 0.00000 3 0
 7576 1 0.29986 3 0
 7577 1 0.29986 3 0
 7578 1 0.29986 3 0
 7579 1 0.29986 3 0
 7580 1 0.34963 3 180
 7581 1 0.27697 3 0
 7582 1 0.13993 3 0
 7583 1 0.00000 3 180
 7584 1 0.00000 3 180
 7585 1 0.00000 3 0
 7586 1 0.47977 3 0
 7587 1 0.00000 3 0
 7588 1 0.19990 3 0
 7589 1 0.07996 3 0
 7590 1 0.09995 3 0
 7591 1 0.09995 3 0
 7592 1 0.07996 3 0
 7593 1 0.02999 3 0
 7594 1 0.02999 3 0
 7595 1 0.02999 3 0
 7596 1 0.02999 3 0
 7597 1 0.15992 3 0
 7598 1 0.09995 3 0
 7599 1 0.09995 6 0
 7600 1 0.09995 6 0
 7601 1 3.99809 3 0
 7602 1 0.14993 3 0
 7603 1 0.14993 3 0
 7604 1 0.14993 3 0
 7605 1 0.14993 3 0
 7606 1 1.09947 1 180
 7607 1 0.29986 3 0
 7608 1 0.00000 3 180
 7609 1 0.29986 3 0
 7610 1 0.12584 3 0
 7611 3 -1.13366 1 0 0.05647 2 0 0.60821 3 0
 7612 1 0.18211 3 0
 7613 3 2.06541 1 0 -0.14973 2 0 -0.00120 3 0
 7614 2 4.96453 1 180 1.03670 3 0
 7615 2 0.09995 2 0 0.02999 3 0
 7616 2 0.02999 2 0 0.02999 3 0
 7617 2 0.02999 2 0 0.02999 3 0
 7618 2 0.09995 2 0 0.02999 3 0
 7619 1 0.02999 3 0
 7620 1 0.02999 3 0
 7621 1 0.02999 3 0
 7622 1 0.02999 3 0
 7623 4 6.27260 1 180 1.04030 2 180 0.21969 3 0 0.31085 4 180
 7624 2 0.09995 2 0 0.02999 3 0
 7625 2 0.02999 2 0 0.02999 3 0
 7626 2 0.02999 2 0 0.02999 3 0
 7627 3 0.33584 1 180 0.52325 2 0 0.15393 3 180
 7628 1 0.18491 3 0
 7629 3 2.41385 1 180 0.58762 2 0 0.08946 3 0
 7630 3 2.93110 1 180 0.09096 2 180 1.06279 3 180
 7631 3 2.41385 1 180 0.58762 2 0 0.08946 3 0
 7632 3 2.93110 1 180 0.09096 2 180 1.06279 3 180
 7633 1 0.18491 3 0
 7634 1 0.19990 3 0
 7635 1 0.47627 3 0
 7636 1 0.19990 3 0
 7637 1 0.18491 3 0
 7638 1 0.18491 3 0
 7639 1 0.18991 3 0
 7640 1 0.13993 3 0
 7641 1 0.18991 3 0
 7642 1 0.18991 3 0
 7643 1 0.14993 3 0
 7644 1 0.15493 3 0
 7645 1 0.00000 3 0
 7646 1 0.00000 3 0
 7647 1 0.43899 3 0
 7648 1 0.15992 3 0
 7649 1 0.15992 3 0
 7650 1 0.15992 3 0
 7651 1 0.15992 3 0
 7652 1 0.15992 3 0
 7653 1 0.14993 3 180
 7654 1 0.15992 3 0
 7655 1 0.14993 3 180
 7656 1 0.14993 3 180
 7657 1 0.09995 3 0
 7658 1 0.09995 3 0
 7659 1 0.09995 3 0
 7660 1 0.09995 3 0
 7661 1 0.09995 3 0
 7662 1 0.10995 3 180
 7663 1 0.10995 3 180
 7664 1 0.02999 3 0
 7665 1 0.00000 3 0
 7666 1 0.00000 3 0
 7667 1 0.18991 3 0
 7668 1 0.00000 3 0
 7669 1 0.09995 3 0
 7670 1 0.09995 3 0
 7671 1 0.00000 3 0
 7672 1 0.00000 3 0
 7673 1 0.18991 3 0
 7674 1 0.18991 3 0
 7675 1 0.00000 3 0
 7676 1 0.00000 3 0
 7677 1 0.00000 3 0
 7678 1 0.00000 3 0
 7679 1 0.00000 3 0
 7680 1 0.41980 3 0
 7681 1 0.41980 3 0
 7682 1 0.41980 3 0
 7683 1 0.00000 3 0
 7684 1 0.00000 3 0
 7685 1 0.00000 3 0
 7686 2 0.39981 3 0 0.07996 6 0
 7687 2 0.06647 2 180 0.12424 3 0
 7688 1 0.14993 3 0
 7689 1 0.14993 3 0
 7690 1 0.14993 3 0
 7691 1 0.01000 3 0
 7692 1 0.42979 3 0
 7693 1 0.00000 3 180
 7694 1 0.00000 3 180
 7695 1 0.00000 3 180
 7696 2 0.39981 3 0 0.07996 6 0
 7697 1 0.11654 3 180
 7698 1 0.49976 3 0
 7699 1 0.00000 3 180
 7700 1 0.09995 3 0
 7701 1 0.04998 3 0
 7702 1 0.41980 3 0
 7703 1 0.15273 3 0
 7704 1 0.20760 3 0
 7705 1 0.06497 3 0
 7706 1 0.06497 3 0
 7707 1 0.08496 3 0
 7708 1 0.08496 3 0
 7709 1 0.28386 3 0
 7710 1 0.28386 3 0
 7711 1 0.28386 3 0
 7712 1 0.28386 3 0
 7713 2 0.19990 1 180 1.19943 2 180
 7714 1 0.19990 3 0
 7715 2 0.19990 1 180 1.19943 2 180
 7716 1 0.00000 3 0
 7717 1 0.00000 3 0
 7718 1 0.00000 3 0
 7719 1 0.00000 3 0
 7720 1 0.00000 3 0
 7721 1 0.00000 3 0
 7722 1 0.00000 3 0
 7723 1 0.17991 3 0
 7724 1 0.09006 3 0
 7725 1 0.07317 3 0
 7726 1 0.09995 3 0
 7727 1 0.10215 3 0
 7728 1 0.15792 3 0
 7729 1 0.02429 3 0
 7730 1 0.02429 3 0
 7731 1 0.35983 3 0
 7732 1 0.35983 3 0
 7733 1 0.35983 3 0
 7734 1 0.14993 3 180
 7735 1 0.27987 3 0
 7736 1 0.12114 3 0
 7737 1 0.27987 3 0
 7738 1 0.19990 3 0
 7739 1 0.22989 3 0
 7740 1 0.08496 3 0
 7741 1 0.11495 3 0
 7742 1 0.09995 3 0
 7743 1 0.18991 3 0
 7744 1 0.17991 3 0
 7745 1 0.00000 3 0
 7746 1 0.19990 3 0
 7747 1 0.19990 3 0
 7748 1 0.19990 3 0
 7749 1 0.00000 3 180
 7750 1 0.00000 3 180
 7751 1 0.00000 3 0
 7752 1 0.00100 6 0
 7753 1 0.14993 3 180
 7754 1 0.14993 3 180
 7755 1 0.14993 3 180
 7756 1 0.00000 6 180
 7757 1 0.00000 3 0
 7758 1 0.00000 6 180
 7759 1 0.00000 6 180
 7760 1 0.01899 3 0
 7761 1 0.00000 6 180
 7762 1 0.05337 3 180
 7763 1 0.14993 3 180
 7764 1 0.00000 6 180
 7765 1 0.09995 3 0
 7766 1 0.09995 3 0
 7767 1 0.89957 3 0
 7768 1 0.09995 3 0
 7769 1 0.09995 3 0
 7770 1 0.09995 3 0
 7771 1 0.09995 3 0
 7772 1 0.08996 3 0
 7773 1 0.31485 3 0
 7774 1 0.07996 3 0
 7775 1 0.41980 3 0
 7776 1 0.15992 3 0
 7777 1 0.10995 6 180
 7778 1 0.10995 6 180
 7779 1 0.29986 3 0
 7780 2 0.33334 1 180 0.03418 2 180
 7781 3 1.81613 1 180 0.98753 2 0 0.21090 3 180
 7782 1 0.17492 6 180
 7783 2 1.63522 1 0 0.52095 2 180
 7784 1 0.04998 3 0
 7785 1 0.04998 3 0
 7786 1 0.04998 3 0
 7787 3 1.19943 1 180 1.09947 2 0 0.49976 3 0
 7788 3 1.29938 1 180 1.19943 2 0 0.19990 3 0
 7789 3 0.99952 1 180 1.09947 2 0 0.19990 3 0
 7790 5 0.57473 1 180 1.08248 2 0 0.95854 3 180 0.19890 4 180 0.23789 6 0
 7791 1 0.19990 3 0
 7792 1 0.12464 3 180
 7793 3 1.49928 1 180 1.19943 2 0 0.09995 3 0
 7794 3 0.89957 1 180 1.59924 2 0 0.09995 3 0
 7795 1 0.19990 3 0
 7796 1 0.39981 3 0
 7797 2 2.44883 1 0 0.01999 3 0
 7798 1 0.00000 3 0
 7799 1 2.26492 3 0
 7800 1 0.00670 3 0
 7801 3 1.09947 1 180 4.49785 2 0 0.04998 3 0
 7802 1 0.29986 3 0
 7803 2 1.59924 1 180 0.89957 2 0
 7804 2 1.59924 1 180 0.89957 2 0
 7805 1 0.29986 3 0
 7806 1 0.29986 3 0
 7807 1 0.29986 3 0
 7808 2 0.19990 1 180 1.59924 2 0
 7809 2 0.59971 1 180 1.09947 2 0
 7810 1 0.29986 3 0
 7811 2 1.59924 1 180 0.89957 2 0
 7812 2 1.59924 1 180 0.89957 2 0
 7813 1 0.37172 3 0
 7814 3 2.06141 1 180 1.03041 2 0 0.26707 3 0
 7815 2 0.39951 1 0 2.84694 2 0
 7816 1 7.99158 1 0
 7817 1 5.74266 1 0
 7818 1 1.69189 1 0
 7819 1 1.69189 1 0
 7820 1 0.01359 1 0
 7821 3 4.77962 1 0 4.87557 2 180 0.18571 3 180
 7822 1 1.37754 3 180
 7823 1 0.27687 3 0
 7824 2 0.09995 2 0 0.02999 3 0
 7825 2 0.02999 2 0 0.02999 3 0
 7826 2 0.02999 2 0 0.02999 3 0
 7827 2 0.09995 2 0 0.02999 3 0
 7828 1 0.02999 3 0
 7829 1 0.02999 3 0
 7830 2 0.71396 3 0 0.02859 4 0
 7831 3 0.01999 1 180 0.05997 2 0 2.46882 3 0
 7832 3 0.01999 1 180 0.05997 2 0 2.46882 3 0
 7833 3 0.01999 1 180 0.05997 2 0 2.46882 3 0
 7834 3 0.01999 1 180 0.05997 2 0 2.46882 3 0
 7835 3 0.34983 1 0 0.68967 2 0 2.78867 3 180
 7836 1 0.19990 3 0
 7837 3 0.01999 1 180 0.05997 2 0 2.46882 3 0
 7838 3 2.05902 1 0 0.12994 2 0 2.86863 3 0
 7839 3 0.16992 1 180 0.25988 2 180 1.03950 3 180
 7840 1 0.00000 6 180
 7841 1 0.19990 3 0
 7842 3 0.34983 1 0 0.68967 2 0 2.78867 3 180
 7843 1 0.19990 3 0
 7844 3 0.59242 1 0 1.29548 2 180 2.17566 3 0
 7845 3 0.34983 1 0 0.36982 2 0 0.18991 3 180
 7846 3 3.09222 1 180 0.70926 2 180 0.02449 3 0
 7847 3 2.93860 1 0 1.47929 2 180 0.49976 3 180
 7848 1 0.09995 3 0
 7849 1 0.19990 3 0
 7850 3 0.34983 1 0 0.36982 2 0 0.18991 3 180
 7851 3 2.54428 1 180 0.79142 2 180 0.96234 3 180
 7852 3 2.61875 1 180 0.27987 2 180 2.27891 3 0
 7853 1 0.09995 3 0
 7854 3 0.34983 1 0 0.36982 2 0 0.18991 3 180
 7855 3 0.34983 1 0 0.36982 2 0 0.18991 3 180
 7856 3 1.02951 1 0 2.43883 2 180 1.23941 3 180
 7857 1 0.09995 3 0
 7858 3 1.02951 1 0 2.43883 2 180 1.23941 3 180
 7859 1 0.09995 3 0
 7860 3 0.01999 1 180 0.05997 2 0 2.46882 3 0
 7861 3 0.34983 1 0 0.68967 2 0 2.78867 3 180
 7862 3 0.34983 1 0 0.68967 2 0 2.78867 3 180
 7863 1 0.19990 3 0
 7864 3 0.34983 1 0 0.36982 2 0 0.18991 3 180
 7865 3 4.28845 1 180 0.48287 2 180 0.04878 3 180
 7866 3 2.08900 1 0 0.16992 2 180 2.14897 3 180
 7867 1 0.00000 3 0
 7868 3 2.79866 1 0 0.74964 2 180 0.31985 3 180
 7869 1 0.00000 3 0
 7870 1 0.00000 3 0
 7871 1 0.09995 3 0
 7872 1 0.19990 3 0
 7873 1 0.19990 3 0
 7874 1 0.19990 3 0
 7875 1 0.19990 3 0
 7876 2 0.39981 1 0 0.48977 3 0
 7877 2 0.39981 1 0 0.48977 3 0
 7878 1 0.28386 3 0
 7879 3 0.13993 1 0 0.96954 2 0 0.10995 3 180
 7880 1 0.28386 3 0
 7881 3 0.13993 1 0 0.96954 2 0 0.10995 3 180
 7882 1 0.28386 3 0
 7883 3 0.07996 1 0 0.75964 2 0 1.17944 3 0
 7884 3 0.07996 1 0 0.75964 2 0 1.17944 3 0
 7885 2 0.97953 2 0 1.49928 3 0
 7886 2 1.59924 1 0 2.49881 2 180
 7887 1 0.19990 3 0
 7888 1 0.18991 3 0
 7889 1 0.19990 3 0
 7890 1 0.19990 3 0
 7891 1 0.19990 3 0
 7892 1 0.29986 3 0
 7893 1 2.49881 2 180
 7894 2 1.59924 1 0 2.49881 2 180
 7895 1 0.00000 1 0
 7896 2 1.59924 1 0 2.49881 2 180
 7897 3 1.14945 1 0 2.99857 2 0 2.38886 3 180
 7898 1 0.19990 3 0
 7899 3 0.55973 1 180 1.59924 2 180 0.92956 3 0
 7900 1 0.00000 6 180
 7901 1 0.19990 3 180
 7902 3 0.34983 1 0 0.36982 2 0 0.18991 3 180
 7903 1 0.17991 3 0
 7904 1 0.17991 3 0
 7905 1 0.17991 3 0
 7906 3 1.54926 1 0 1.16944 2 0 1.06949 3 0
 7907 1 0.17991 3 0
 7908 1 0.17991 3 0
 7909 3 1.12946 1 0 0.13993 2 0 0.23989 3 0
 7910 3 1.54926 1 0 1.16944 2 0 1.06949 3 0
 7911 3 1.54926 1 0 1.16944 2 0 1.06949 3 0
 7912 1 0.17991 3 0
 7913 1 0.17991 3 0
 7914 1 0.00000 1 0
 7915 1 0.00000 1 0
 7916 1 0.00000 1 0
 7917 1 0.00000 1 0
 7918 1 0.00000 1 0
 7919 1 0.00000 1 0
 7920 1 2.49881 2 180
 7921 1 2.49881 2 180
 7922 1 0.00000 3 0
 7923 1 0.00000 1 0
 7924 1 0.00000 1 0
 7925 1 0.00000 1 0
 7926 1 0.00000 1 0
 7927 1 0.00000 1 0
 7928 3 1.12946 1 0 0.13993 2 0 0.23989 3 0
 7929 3 0.01999 1 0 0.55973 2 0 0.48977 3 0
 7930 3 1.12946 1 0 0.13993 2 0 0.23989 3 0
 7931 1 0.09995 3 0
 7932 1 0.09995 3 0
 7933 1 0.09995 3 0
 7934 1 0.00000 3 180
 7935 1 0.00000 6 180
 7936 3 1.33936 1 180 1.18943 2 0 2.57877 3 0
 7937 3 3.31342 1 180 1.68200 2 180 2.95199 3 180
 7938 3 1.33936 1 180 1.18943 2 0 2.57877 3 0
 7939 3 0.74964 1 180 0.16992 2 0 0.24988 3 180
 7940 3 2.64873 1 180 0.00000 2 0 0.12994 3 180
 7941 1 0.19990 3 0
 7942 3 2.74869 1 180 0.25988 2 180 0.09995 3 0
 7943 3 1.35935 1 180 0.15992 2 0 1.00952 3 0
 7944 3 1.35935 1 180 0.15992 2 0 1.00952 3 0
 7945 3 2.64873 1 180 0.00000 2 0 0.12994 3 180
 7946 1 0.19990 3 0
 7947 3 2.49881 1 180 1.99904 2 0 2.49881 3 0
 7948 1 1.10947 2 180
 7949 3 0.40980 1 180 0.88957 2 0 0.04998 3 0
 7950 1 1.10947 2 180
 7951 3 0.74964 1 180 0.16992 2 0 0.24988 3 180
 7952 1 0.13993 3 0
 7953 1 0.13993 3 0
 7954 1 0.13993 3 0
 7955 3 2.86863 1 180 0.02999 2 0 0.22989 3 0
 7956 3 0.75964 1 180 1.24940 2 0 0.47977 3 180
 7957 1 0.13993 3 0
 7958 1 0.13993 3 0
 7959 3 0.06997 1 0 1.98905 2 180 1.71918 3 180
 7960 1 0.13993 3 0
 7961 3 0.11994 1 180 1.86911 2 180 1.63922 3 180
 7962 3 0.18991 1 180 2.84864 2 180 0.85959 3 0
 7963 1 0.13993 3 0
 7964 1 0.13993 3 0
 7965 1 0.13993 3 0
 7966 1 0.13993 3 0
 7967 3 2.86863 1 180 0.02999 2 0 0.22989 3 0
 7968 1 0.18991 3 180
 7969 1 0.18991 3 180
 7970 1 0.18991 3 180
 7971 1 2.30890 3 180
 7972 1 0.19990 3 0
 7973 1 0.19990 3 0
 7974 3 1.75916 1 0 2.55878 2 0 0.01000 3 0
 7975 1 0.18991 3 180
 7976 1 0.19990 3 0
 7977 1 0.19990 3 0
 7978 1 0.19990 3 0
 7979 1 0.19990 3 0
 7980 1 0.30985 3 180
 7981 1 0.30985 3 180
 7982 1 0.19990 3 0
 7983 1 0.19990 3 0
 7984 1 0.19990 3 0
 7985 3 1.75916 1 0 2.55878 2 0 0.01000 3 0
 7986 1 0.19990 3 0
 7987 3 1.75916 1 0 2.55878 2 0 0.01000 3 0
 7988 1 0.30985 3 180
 7989 3 0.12994 1 180 0.24988 2 180 0.05997 3 180
 7990 3 0.12994 1 180 0.24988 2 180 0.05997 3 180
 7991 3 0.12994 1 180 0.24988 2 180 0.05997 3 180
 7992 3 0.28986 1 0 0.61970 2 0 0.04998 3 0
 7993 1 0.01999 3 180
 7994 1 0.20990 3 0
 7995 1 0.01999 3 180
 7996 1 0.16092 3 0
 7997 1 0.19990 3 0
 7998 1 0.30985 3 180
 7999 1 0.19990 3 0
 8000 1 0.19990 3 0
 8001 1 0.18991 3 180
 8002 1 0.18991 3 180
 8003 1 0.19990 3 0
 8004 1 0.19990 3 0
 8005 1 0.19990 3 0
 8006 1 0.19990 3 0
 8007 1 0.19990 3 0
 8008 3 0.49976 1 180 0.36982 2 180 0.14993 3 0
 8009 1 0.42979 3 0
 8010 1 0.04998 6 180
 8011 1 0.19990 3 0
 8012 1 0.19990 3 0
 8013 1 0.19990 3 0
 8014 1 0.19990 3 0
 8015 3 0.21989 1 0 0.27987 2 180 0.88957 3 0
 8016 3 0.21989 1 0 0.27987 2 180 0.88957 3 0
 8017 3 0.40980 1 180 0.65968 2 180 1.59924 3 0
 8018 3 1.37934 1 180 1.22941 2 180 0.24988 3 0
 8019 3 1.14945 1 180 1.53926 2 180 0.38981 3 0
 8020 3 0.57972 1 180 0.68967 2 180 1.15945 3 0
 8021 3 0.21989 1 0 0.27987 2 180 0.88957 3 0
 8022 3 0.57972 1 180 0.68967 2 180 1.15945 3 0
 8023 3 0.72965 1 0 0.60971 2 180 0.00000 3 180
 8024 3 0.28986 1 0 0.61970 2 0 0.04998 3 0
 8025 1 0.01999 3 180
 8026 3 0.04998 1 180 0.37982 2 180 0.35983 3 0
 8027 1 0.01999 3 180
 8028 1 0.44978 3 0
 8029 1 0.19990 3 0
 8030 2 1.59924 1 0 2.49881 2 180
 8031 1 0.28386 3 0
 8032 3 0.04998 1 180 0.90957 2 0 1.26939 3 180
 8033 3 0.04998 1 180 0.90957 2 0 1.26939 3 180
 8034 1 0.28386 3 0
 8035 3 0.51975 1 180 1.49928 2 0 0.97953 3 0
 8036 3 1.18943 1 180 0.15992 2 180 0.48977 3 180
 8037 1 0.28386 3 0
 8038 2 0.96454 1 180 3.84816 2 180
 8039 1 2.04902 2 180
 8040 1 0.28386 3 0
 8041 2 0.39981 1 0 0.48977 3 0
 8042 1 0.32984 3 0
 8043 1 1.44931 2 0
 8044 1 0.16992 3 0
 8045 1 0.32984 3 0
 8046 1 1.44931 2 0
 8047 1 0.32984 3 0
 8048 1 0.15293 3 0
 8049 1 0.18991 3 180
 8050 4 1.97476 1 180 1.68989 2 0 0.99562 3 0 0.31465 6 0
 8051 3 0.28986 1 0 0.61970 2 0 0.04998 3 0
 8052 1 0.19990 3 0
 8053 1 0.30985 3 180
 8054 1 0.30985 3 180
 8055 1 0.19990 3 0
 8056 1 0.19990 3 0
 8057 3 1.01452 1 180 0.45478 2 0 1.03251 3 180
 8058 1 0.19990 3 0
 8059 3 0.28986 1 0 0.61970 2 0 0.04998 3 0
 8060 3 0.40980 1 180 0.65968 2 180 1.59924 3 0
 8061 3 0.21989 1 0 0.27987 2 180 0.88957 3 0
 8062 3 1.53267 1 180 1.59254 2 0 1.38044 3 0
 8063 3 0.33344 1 180 0.03418 2 0 0.72975 3 180
 8064 1 0.19990 3 0
 8065 1 0.19990 3 0
 8066 1 0.19990 3 0
 8067 3 0.25228 1 180 0.45848 2 0 1.18014 3 180
 8068 3 0.28986 1 0 0.61970 2 0 0.04998 3 0
 8069 1 0.19990 3 0
 8070 1 0.19990 3 0
 8071 3 1.75916 1 0 2.55878 2 0 0.01000 3 0
 8072 3 0.12994 1 180 0.24988 2 180 0.05997 3 180
 8073 4 0.85499 1 0 0.44619 2 0 0.84759 3 180 0.40511 6 180
 8074 3 0.28986 1 0 0.61970 2 0 0.04998 3 0
 8075 1 0.20990 3 0
 8076 3 0.63969 1 180 0.02999 2 180 0.60971 3 0
 8077 3 0.63969 1 180 0.02999 2 180 0.60971 3 0
 8078 3 0.28986 1 0 0.61970 2 0 0.04998 3 0
 8079 3 1.40933 1 180 0.39981 2 0 0.20990 3 180
 8080 3 0.40980 1 180 0.88957 2 0 0.04998 3 0
 8081 3 0.40980 1 180 0.88957 2 0 0.04998 3 0
 8082 3 0.40980 1 180 0.88957 2 0 0.04998 3 0
 8083 1 2.43883 3 180
 8084 3 0.40980 1 180 0.88957 2 0 0.04998 3 0
 8085 1 2.43883 3 180
 8086 3 0.40980 1 180 0.88957 2 0 0.04998 3 0
 8087 3 0.40980 1 180 0.88957 2 0 0.04998 3 0
 8088 1 0.18991 3 180
 8089 1 0.30985 3 180
 8090 1 0.18991 3 0
 8091 1 0.30985 3 180
 8092 1 0.18991 3 0
 8093 1 0.19990 3 0
 8094 1 0.19990 3 0
 8095 3 0.63969 1 180 0.02999 2 180 0.60971 3 0
 8096 3 1.40933 1 180 0.39981 2 0 0.20990 3 180
 8097 1 0.28386 3 0
 8098 1 0.28386 3 0
 8099 3 0.04998 1 180 0.90957 2 0 1.26939 3 180
 8100 3 0.51975 1 180 1.49928 2 0 0.97953 3 0
 8101 3 1.18943 1 180 0.15992 2 180 0.48977 3 180
 8102 1 0.18991 3 180
 8103 1 0.30985 3 180
 8104 1 0.19990 3 0
 8105 1 0.30985 3 180
 8106 1 0.19990 3 0
 8107 3 1.09947 1 180 0.06997 2 180 0.14993 3 0
 8108 1 0.42979 3 0
 8109 1 0.19990 3 0
 8110 3 0.12994 1 180 0.24988 2 180 0.05997 3 180
 8111 1 0.18991 3 180
 8112 1 0.30985 3 180
 8113 1 0.18991 3 0
 8114 1 0.30985 3 180
 8115 1 0.19990 3 0
 8116 1 0.30985 3 180
 8117 1 0.18991 3 0
 8118 1 0.30985 3 180
 8119 1 0.19990 3 0
 8120 3 1.75916 1 0 2.55878 2 0 0.01000 3 0
 8121 1 0.19990 3 0
 8122 1 0.19990 3 0
 8123 1 0.19990 3 0
 8124 1 0.19990 3 0
 8125 1 0.19990 3 0
 8126 1 0.19990 3 0
 8127 1 0.19990 3 0
 8128 3 0.21989 1 0 0.27987 2 180 0.88957 3 0
 8129 3 0.40980 1 180 0.65968 2 180 1.59924 3 0
 8130 3 1.37934 1 180 1.22941 2 180 0.24988 3 0
 8131 3 1.14945 1 180 1.53926 2 180 0.38981 3 0
 8132 3 0.72965 1 0 0.60971 2 180 0.00000 3 180
 8133 1 0.01999 3 180
 8134 1 0.20990 3 0
 8135 1 0.19990 3 0
 8136 1 0.18991 3 180
 8137 1 0.19990 3 0
 8138 3 1.75916 1 0 2.55878 2 0 0.01000 3 0
 8139 1 0.19990 3 0
 8140 1 0.28386 3 0
 8141 1 0.28386 3 0
 8142 1 0.28386 3 0
 8143 3 0.61970 1 0 1.53926 2 0 0.47977 3 0
 8144 3 0.61970 1 0 1.53926 2 0 0.47977 3 0
 8145 1 2.43883 3 180
 8146 3 0.61970 1 0 1.53926 2 0 0.47977 3 0
 8147 3 0.61970 1 0 1.53926 2 0 0.47977 3 0
 8148 1 0.18991 3 180
 8149 1 0.19990 3 0
 8150 1 0.18991 3 180
 8151 1 0.18991 3 180
 8152 1 0.18991 3 0
 8153 1 0.18991 3 180
 8154 1 0.19990 3 0
 8155 3 0.12994 1 180 0.24988 2 180 0.05997 3 180
 8156 1 0.28386 3 0
 8157 1 0.28386 3 0
 8158 1 0.28386 3 0
 8159 1 0.01999 3 180
 8160 1 0.19990 3 0
 8161 1 0.18991 3 180
 8162 1 0.18991 3 180
 8163 1 0.18991 3 0
 8164 1 0.28386 3 0
 8165 1 0.28386 3 0
 8166 3 0.52975 1 0 0.73965 2 0 0.15992 3 0
 8167 3 0.69967 1 180 1.40933 2 0 0.74964 3 0
 8168 3 1.22941 1 180 0.14993 2 0 0.53974 3 180
 8169 1 0.28386 3 0
 8170 1 0.28386 3 0
 8171 1 0.28386 3 0
 8172 3 0.71966 1 180 0.33984 2 180 0.11994 3 180
 8173 1 0.28386 3 0
 8174 1 0.28386 3 0
 8175 3 2.01903 1 180 0.03998 2 0 0.96954 3 180
 8176 1 0.28386 3 0
 8177 1 0.28386 3 0
 8178 3 1.51927 1 180 0.03998 2 180 0.44978 3 180
 8179 3 2.20894 1 180 0.01000 2 180 0.02999 3 0
 8180 1 0.01999 3 180
 8181 1 0.19990 3 0
 8182 1 0.18991 3 180
 8183 1 0.19990 3 0
 8184 1 0.00000 1 0
 8185 1 0.49976 1 180
 8186 1 0.19990 3 0
 8187 1 0.32984 3 0
 8188 1 1.44931 2 0
 8189 1 0.16992 3 0
 8190 3 0.06997 1 180 0.03998 2 0 0.13993 3 0
 8191 1 2.49881 2 180
 8192 2 1.59924 1 0 2.49881 2 180
 8193 1 0.18991 3 180
 8194 1 0.19990 3 0
 8195 1 0.19990 3 0
 8196 3 1.75916 1 0 2.55878 2 0 0.01000 3 0
 8197 3 0.12994 1 180 0.24988 2 180 0.05997 3 180
 8198 3 0.12994 1 180 0.24988 2 180 0.05997 3 180
 8199 3 0.21989 1 0 0.27987 2 180 0.88957 3 0
 8200 4 2.36667 1 0 0.60861 2 180 0.36692 3 180 0.06147 6 180
 8201 3 0.28986 1 0 0.61970 2 0 0.04998 3 0
 8202 1 0.20990 3 0
 8203 1 0.16092 3 0
 8204 2 0.39981 1 0 0.48977 3 0
 8205 1 0.28386 3 0
 8206 1 0.28386 3 0
 8207 1 0.28386 3 0
 8208 3 1.51927 1 180 0.03998 2 180 0.44978 3 180
 8209 3 2.20894 1 180 0.01000 2 180 0.02999 3 0
 8210 3 2.01903 1 180 0.03998 2 0 0.96954 3 180
 8211 3 0.71966 1 180 0.33984 2 180 0.11994 3 180
 8212 1 0.28386 3 0
 8213 2 0.39981 1 0 0.48977 3 0
 8214 3 0.71966 1 180 0.33984 2 180 0.11994 3 180
 8215 2 0.39981 1 0 0.48977 3 0
 8216 1 0.28386 3 0
 8217 1 0.28386 3 0
 8218 2 0.39981 1 0 0.48977 3 0
 8219 1 0.28386 3 0
 8220 3 0.52975 1 0 0.73965 2 0 0.15992 3 0
 8221 3 0.69967 1 180 1.40933 2 0 0.74964 3 0
 8222 3 1.22941 1 180 0.14993 2 0 0.53974 3 180
 8223 1 0.32984 3 0
 8224 1 1.44931 2 0
 8225 1 0.16992 3 0
 8226 3 0.06997 1 180 0.03998 2 0 0.13993 3 0
 8227 3 0.06997 1 180 0.03998 2 0 0.13993 3 0
 8228 1 0.28386 3 0
 8229 3 0.06997 1 180 0.03998 2 0 0.13993 3 0
 8230 1 2.49881 2 180
 8231 2 1.59924 1 0 2.49881 2 180
 8232 1 0.32984 3 0
 8233 1 1.44931 2 0
 8234 1 0.19990 3 0
 8235 1 0.19990 3 0
 8236 1 0.19990 3 0
 8237 1 0.19990 3 0
 8238 1 0.19990 3 0
 8239 1 0.19990 3 0
 8240 1 0.18991 3 0
 8241 1 0.18991 3 0
 8242 1 0.15992 3 0
 8243 1 1.79914 1 0
 8244 1 1.79914 1 0
 8245 1 0.28386 3 0
 8246 3 0.13993 1 0 0.96954 2 0 0.10995 3 180
 8247 1 0.28386 3 0
 8248 1 0.28386 3 0
 8249 3 0.35983 1 180 0.51975 2 0 0.82960 3 180
 8250 3 0.57972 1 180 0.68967 2 180 1.15945 3 0
 8251 2 0.97953 2 0 1.49928 3 0
 8252 2 0.96954 1 180 0.43979 3 180
 8253 3 0.39981 1 180 0.47977 2 0 0.18991 3 0
 8254 2 0.97953 2 0 1.49928 3 0
 8255 2 0.96954 1 180 0.43979 3 180
 8256 3 0.13993 1 0 0.96954 2 0 0.10995 3 180
 8257 1 0.28386 3 0
 8258 3 0.75964 1 180 0.39981 2 180 0.39981 3 180
 8259 1 0.19990 3 0
 8260 3 0.75964 1 180 0.39981 2 180 0.39981 3 180
 8261 3 0.93955 1 0 1.58924 2 180 0.83960 3 0
 8262 1 0.19990 3 0
 8263 3 0.93955 1 0 1.58924 2 180 0.83960 3 0
 8264 3 0.39981 1 180 0.47977 2 0 0.18991 3 0
 8265 3 0.39981 1 180 0.47977 2 0 0.18991 3 0
 8266 1 0.19990 3 0
 8267 1 0.16992 3 0
 8268 1 0.09995 3 0
 8269 2 0.94955 2 0 0.49976 3 0
 8270 1 1.16944 3 180
 8271 1 1.91908 3 180
 8272 1 2.49881 2 180
 8273 2 1.59924 1 0 2.49881 2 180
 8274 1 1.39933 1 0
 8275 1 0.00000 1 0
 8276 1 2.49881 2 180
 8277 2 1.59924 1 0 2.49881 2 180
 8278 1 0.00000 3 0
 8279 1 1.79914 1 0
 8280 1 0.19990 3 0
 8281 1 0.28386 3 0
 8282 1 0.28386 3 0
 8283 1 0.19990 3 0
 8284 1 0.19990 3 0
 8285 3 0.28986 1 0 0.61970 2 0 0.04998 3 0
 8286 3 0.12994 1 180 0.24988 2 180 0.05997 3 180
 8287 3 0.40980 1 180 0.88957 2 0 0.04998 3 0
 8288 3 0.40980 1 180 0.88957 2 0 0.04998 3 0
 8289 1 0.19990 3 0
 8290 1 0.19990 3 0
 8291 1 0.19990 3 0
 8292 1 0.19990 3 0
 8293 1 0.81961 3 180
 8294 3 1.16654 1 180 1.51997 2 0 1.01551 3 180
 8295 3 0.41260 1 180 0.28736 2 180 0.06847 3 0
 8296 1 0.19990 3 0
 8297 1 0.19990 3 0
 8298 1 0.81961 3 180
 8299 1 0.19990 3 0
 8300 1 0.19990 3 0
 8301 1 0.15992 3 0
 8302 1 0.04998 6 180
 8303 1 0.63969 2 180
 8304 1 0.04998 6 180
 8305 1 0.04998 6 180
 8306 1 0.04998 6 180
 8307 1 0.19990 3 0
 8308 1 0.19990 3 0
 8309 1 0.19990 3 0
 8310 1 0.19990 3 0
 8311 1 0.19990 3 0
 8312 1 0.19990 3 0
 8313 1 0.19990 3 0
 8314 1 0.19990 3 0
 8315 3 2.64873 1 180 0.00000 2 0 0.12994 3 180
 8316 1 0.19990 3 0
 8317 3 2.64873 1 180 0.00000 2 0 0.12994 3 180
 8318 1 0.19990 3 0
 8319 1 0.19990 3 0
 8320 2 0.58972 1 180 1.15945 2 0
 8321 3 2.64873 1 180 0.00000 2 0 0.12994 3 180
 8322 2 0.58972 1 180 1.15945 2 0
 8323 3 2.74869 1 180 0.25988 2 180 0.09995 3 0
 8324 1 0.19990 3 0
 8325 3 1.35935 1 180 0.15992 2 0 1.00952 3 0
 8326 1 0.19990 3 0
 8327 1 0.19990 3 0
 8328 3 1.35935 1 180 0.15992 2 0 1.00952 3 0
 8329 1 0.63969 2 180
 8330 3 1.92908 1 180 0.42979 2 0 0.11994 3 180
 8331 1 0.19990 3 0
 8332 3 1.48989 1 180 0.37572 2 0 0.59132 3 0
 8333 1 0.19990 3 0
 8334 1 0.19990 3 0
 8335 3 1.92908 1 180 0.42979 2 0 0.11994 3 180
 8336 3 1.09947 1 180 0.06997 2 180 0.14993 3 0
 8337 1 0.13993 3 0
 8338 3 1.09947 1 180 0.06997 2 180 0.14993 3 0
 8339 1 0.63969 2 180
 8340 1 0.19990 3 0
 8341 1 0.29986 3 0
 8342 3 2.86863 1 180 0.02999 2 0 0.22989 3 0
 8343 1 0.19990 3 0
 8344 3 0.75964 1 180 1.24940 2 0 0.47977 3 180
 8345 1 0.19990 3 0
 8346 1 0.13993 3 0
 8347 3 0.06997 1 0 1.98905 2 180 1.71918 3 180
 8348 3 0.06997 1 0 1.98905 2 180 1.71918 3 180
 8349 1 0.13993 3 0
 8350 3 0.11994 1 180 1.86911 2 180 1.63922 3 180
 8351 3 1.77405 1 180 1.57055 2 0 1.82053 3 0
 8352 1 0.13993 3 0
 8353 3 1.71558 1 180 0.39711 2 180 1.97835 3 0
 8354 1 0.13993 3 0
 8355 1 0.13993 3 0
 8356 1 0.00000 6 180
 8357 1 0.19990 3 0
 8358 1 0.18991 3 0
 8359 1 0.00000 3 0
 8360 1 0.00000 3 0
 8361 1 0.00000 3 0
 8362 1 0.19491 3 0
 8363 1 0.00000 3 0
 8364 1 0.19491 3 0
 8365 1 0.19990 3 0
 8366 1 0.19990 3 0
 8367 3 2.64873 1 180 0.00000 2 0 0.12994 3 180
 8368 1 0.19990 3 0
 8369 1 0.19990 3 0
 8370 3 0.18991 1 180 2.84864 2 180 0.85959 3 0
 8371 1 0.13993 3 0
 8372 3 0.06997 1 0 1.98905 2 180 1.71918 3 180
 8373 3 0.06997 1 0 1.98905 2 180 1.71918 3 180
 8374 1 0.13993 3 0
 8375 3 0.11994 1 180 1.86911 2 180 1.63922 3 180
 8376 3 0.11994 1 180 1.86911 2 180 1.63922 3 180
 8377 1 0.19990 3 0
 8378 4 2.12708 1 180 1.37374 2 0 0.58552 3 0 0.88608 6 0
 8379 4 1.80814 1 0 0.68697 2 180 1.33036 3 180 0.56553 6 180
 8380 1 0.19990 3 0
 8381 1 0.00000 3 0
 8382 2 0.58972 1 180 1.15945 2 0
 8383 1 0.19990 3 0
 8384 3 0.61970 1 0 1.53926 2 0 0.47977 3 0
 8385 3 0.61970 1 0 1.53926 2 0 0.47977 3 0
 8386 2 0.58972 1 180 1.15945 2 0
 8387 1 0.19990 3 0
 8388 1 0.19990 3 0
 8389 1 0.19990 3 0
 8390 1 0.63969 2 180
 8391 1 0.60971 3 0
 8392 3 0.05997 1 0 0.77963 2 0 0.73965 3 180
 8393 1 0.63969 2 180
 8394 3 1.34576 1 0 3.07283 2 0 0.83740 3 180
 8395 3 2.10080 1 0 1.40953 2 0 0.45678 3 0
 8396 1 0.15992 3 0
 8397 1 0.19990 3 0
 8398 1 0.15992 3 0
 8399 1 0.19990 3 0
 8400 1 0.19990 3 0
 8401 1 0.30985 3 180
 8402 1 0.60971 3 0
 8403 1 0.19990 3 0
 8404 1 0.19990 3 0
 8405 3 0.05997 1 0 0.77963 2 0 0.73965 3 180
 8406 1 0.19990 3 0
 8407 2 0.37982 2 0 0.40980 3 180
 8408 3 0.75964 1 0 0.67968 2 0 0.25988 3 180
 8409 1 0.19990 3 0
 8410 1 0.30985 3 180
 8411 1 0.60971 3 0
 8412 1 0.19990 3 0
 8413 1 0.19990 3 0
 8414 1 0.60971 3 0
 8415 2 0.37982 2 0 0.40980 3 180
 8416 3 0.07996 1 0 0.92956 2 0 0.04998 3 0
 8417 3 0.35983 1 180 0.51975 2 0 0.82960 3 180
 8418 3 0.35983 1 180 0.51975 2 0 0.82960 3 180
 8419 2 0.37982 2 0 0.40980 3 180
 8420 3 0.81961 1 0 0.80961 2 0 0.34983 3 0
 8421 3 0.32984 1 0 2.16896 2 0 0.44978 3 0
 8422 1 0.13993 3 0
 8423 3 0.17991 1 180 0.18991 2 180 1.45930 3 0
 8424 1 0.13993 3 0
 8425 1 0.13993 3 0
 8426 1 0.17991 3 0
 8427 1 0.13993 3 0
 8428 1 0.19990 3 0
 8429 1 0.19990 3 0
 8430 1 0.19990 3 0
 8431 1 0.19990 3 0
 8432 1 0.00000 3 180
 8433 1 0.00000 3 0
 8434 1 0.00000 3 0
 8435 1 0.17991 3 0
 8436 1 0.17991 3 0
 8437 1 0.19990 3 0
 8438 1 0.19990 3 0
 8439 1 0.18991 3 0
 8440 1 0.18991 3 0
 8441 1 0.19990 3 0
 8442 1 0.04998 6 180
 8443 1 0.15992 3 0
 8444 1 0.19990 3 0
 8445 1 0.28386 3 0
 8446 1 0.00000 3 0
 8447 1 0.28386 3 0
 8448 1 0.28386 3 0
 8449 1 0.19990 3 0
 8450 1 0.19990 3 0
 8451 1 0.00000 3 180
 8452 1 0.00000 3 0
 8453 1 0.00000 3 0
 8454 1 0.00000 3 0
 8455 1 0.13993 3 0
 8456 1 0.19990 3 0
 8457 1 0.19990 3 0
 8458 1 0.19990 3 0
 8459 1 0.19990 3 0
 8460 1 0.13993 3 0
 8461 1 0.13993 3 0
 8462 1 0.19990 3 0
 8463 1 0.19990 3 0
 8464 1 0.19990 3 0
 8465 1 0.13993 3 0
 8466 1 0.19990 3 0
 8467 1 0.28386 3 0
 8468 1 0.13993 3 0
 8469 1 0.28386 3 0
 8470 1 0.18991 3 0
 8471 1 0.19990 3 0
 8472 1 0.19990 3 0
 8473 1 0.18991 3 0
 8474 1 0.19990 3 0
 8475 1 0.19990 3 0
 8476 1 0.19990 3 0
 8477 1 0.17991 3 0
 8478 1 0.04998 6 180
 8479 1 0.19990 3 0
 8480 1 0.28386 3 0
 8481 1 0.13993 3 0
 8482 1 0.19990 3 0
 8483 1 0.19990 3 0
 8484 1 0.19990 3 0
 8485 1 0.19990 3 0
 8486 1 0.19990 3 0
 8487 1 0.19990 3 0
 8488 1 0.19990 3 0
 8489 1 0.19990 3 0
 8490 1 0.13993 3 0
 8491 1 0.19990 3 0
 8492 1 0.19990 3 0
 8493 1 0.19990 3 0
 8494 1 0.19990 3 0
 8495 1 0.19990 3 0
 8496 1 0.19990 3 0
 8497 1 0.19990 3 0
 8498 1 0.19990 3 0
 8499 1 0.19990 3 0
 8500 1 0.19990 3 0
 8501 1 0.19990 3 0
 8502 1 0.19990 3 0
 8503 1 0.19990 3 0
 8504 1 0.19990 3 0
 8505 1 0.19990 3 0
 8506 1 0.28386 3 0
 8507 1 0.00000 3 0
 8508 1 0.28386 3 0
 8509 1 0.28386 3 0
 8510 1 0.00000 3 0
 8511 1 0.28386 3 0
 8512 1 0.13993 3 0
 8513 1 0.19990 3 0
 8514 1 0.19990 3 0
 8515 1 0.19990 3 0
 8516 1 0.19990 3 0
 8517 1 0.19990 3 0
 8518 1 0.28386 3 0
 8519 1 0.28386 3 0
 8520 1 0.28386 3 0
 8521 1 0.28386 3 0
 8522 1 0.00000 1 0
 8523 1 0.00000 1 0
 8524 1 0.28386 3 0
 8525 1 0.28386 3 0
 8526 1 0.34983 3 0
 8527 1 0.13993 3 0
 8528 1 0.19990 3 0
 8529 1 0.19990 3 0
 8530 1 0.19990 3 0
 8531 1 0.19990 3 0
 8532 1 0.13993 3 0
 8533 1 0.19990 3 0
 8534 1 0.00000 6 180
 8535 1 0.13993 3 0
 8536 1 0.19990 3 0
 8537 1 0.19990 3 0
 8538 1 0.04998 6 180
 8539 1 0.19990 3 0
 8540 1 0.28386 3 0
 8541 1 0.28386 3 0
 8542 1 0.19990 3 0
 8543 1 0.19990 3 0
 8544 1 0.13993 3 0
 8545 1 0.19990 3 0
 8546 1 0.13993 3 0
 8547 1 0.19990 3 0
 8548 1 0.19990 3 0
 8549 1 0.00000 6 180
 8550 1 0.28386 3 0
 8551 1 0.19990 3 0
 8552 1 0.19990 3 0
 8553 1 0.19990 3 0
 8554 1 0.00000 6 180
 8555 1 0.19990 3 0
 8556 1 0.28386 3 0
 8557 1 0.00000 3 0
 8558 1 0.19990 3 0
 8559 1 0.19990 3 0
 8560 1 0.19990 3 0
 8561 1 0.19990 3 0
 8562 1 0.28386 3 0
 8563 1 0.28386 3 0
 8564 2 0.29986 1 0 0.79962 2 180
 8565 1 0.19990 3 0
 8566 1 0.19990 3 0
 8567 1 0.19990 3 0
 8568 1 0.19990 3 0
 8569 1 0.19491 3 0
 8570 1 0.28386 3 0
 8571 1 0.28386 3 0
 8572 1 0.29986 3 0
 8573 1 0.19990 3 0
 8574 1 0.28386 3 0
 8575 1 0.29986 3 0
 8576 1 0.19990 3 0
 8577 1 0.19990 3 0
 8578 1 0.28386 3 0
 8579 1 0.28386 3 0
 8580 1 2.49881 2 180
 8581 1 2.49881 2 180
 8582 1 2.49881 2 180
 8583 1 0.00000 6 180
 8584 2 1.59924 1 0 2.49881 2 180
 8585 1 0.28386 3 0
 8586 1 0.49976 1 180
 8587 1 0.00000 1 0
 8588 1 0.49976 1 180
 8589 1 0.00000 1 0
 8590 1 0.00000 3 0
 8591 1 0.00000 1 0
 8592 1 0.49976 1 180
 8593 2 2.69871 1 180 1.27939 2 0
 8594 1 0.49976 1 180
 8595 2 2.69871 1 180 1.27939 2 0
 8596 1 0.19990 3 0
 8597 1 0.19990 3 0
 8598 1 0.28386 3 0
 8599 1 0.19990 3 0
 8600 1 0.19990 3 0
 8601 1 2.39885 2 180
 8602 1 3.09852 2 180
 8603 3 0.39981 1 180 0.01000 2 0 0.25988 3 0
 8604 1 0.18991 3 0
 8605 1 0.29986 3 0
 8606 1 0.29986 3 0
 8607 1 0.29986 3 0
 8608 1 0.19990 3 0
 8609 1 0.19990 3 0
 8610 1 0.18991 3 0
 8611 1 0.40980 3 180
 8612 1 0.49976 3 0
 8613 1 0.49976 3 0
 8614 1 0.49976 3 0
 8615 1 0.19990 3 0
 8616 1 0.19990 3 0
 8617 1 0.19990 3 0
 8618 1 0.19990 3 0
 8619 3 1.97905 1 0 2.55878 2 0 1.79914 3 0
 8620 3 1.97905 1 0 2.55878 2 0 1.79914 3 0
 8621 1 0.19990 3 0
 8622 1 0.19990 3 0
 8623 1 0.19990 3 0
 8624 1 0.40980 3 180
 8625 1 0.49976 3 0
 8626 3 0.20990 1 180 0.33984 2 180 0.73965 3 180
 8627 1 0.19990 3 0
 8628 3 1.09947 1 180 0.06997 2 180 0.14993 3 0
 8629 3 0.40980 1 180 0.28986 2 0 0.41980 3 0
 8630 3 1.87910 1 0 2.17896 2 0 0.23989 3 0
 8631 3 1.87910 1 0 2.17896 2 0 0.23989 3 0
 8632 2 0.96954 1 180 0.43979 3 180
 8633 1 0.49976 3 0
 8634 1 0.18991 3 0
 8635 1 0.00000 3 0
 8636 1 0.00000 3 0
 8637 1 0.19990 3 0
 8638 1 0.00000 3 0
 8639 1 0.19990 3 0
 8640 1 0.19990 3 0
 8641 1 0.00000 3 0
 8642 1 0.19990 3 0
 8643 1 0.19990 3 0
 8644 1 0.00000 3 0
 8645 1 0.19990 3 0
 8646 1 0.19990 3 0
 8647 1 0.29986 3 0
 8648 1 0.28386 3 0
 8649 1 0.18991 3 0
 8650 1 0.40980 3 180
 8651 1 0.49976 3 0
 8652 1 0.28386 3 0
 8653 3 0.63969 1 180 0.02999 2 180 0.60971 3 0
 8654 1 0.28386 3 0
 8655 1 0.28386 3 0
 8656 3 0.07996 1 0 0.92956 2 0 0.04998 3 0
 8657 3 0.04998 1 180 0.37982 2 180 0.35983 3 0
 8658 3 1.16944 1 0 0.84959 2 0 0.36982 3 0
 8659 1 0.19990 3 0
 8660 1 0.19990 3 0
 8661 3 1.25940 1 180 1.26939 2 0 0.52975 3 0
 8662 1 0.19990 3 0
 8663 2 0.59971 2 0 0.19990 3 0
 8664 3 0.89957 1 0 1.13946 2 0 0.10995 3 180
 8665 1 0.19990 3 0
 8666 1 0.19990 3 0
 8667 3 0.31985 1 180 0.64969 2 180 2.61875 3 0
 8668 3 0.31985 1 180 0.64969 2 180 2.61875 3 0
 8669 1 0.19990 3 0
 8670 3 0.51975 1 0 1.15945 2 180 0.32984 3 180
 8671 3 1.92908 1 180 0.42979 2 0 0.11994 3 180
 8672 1 0.19990 3 0
 8673 3 0.13993 1 0 0.69967 2 0 0.17991 3 0
 8674 3 0.13993 1 0 0.69967 2 0 0.17991 3 0
 8675 1 0.19990 3 0
 8676 3 1.49928 1 180 0.57972 2 0 0.53974 3 0
 8677 3 1.92908 1 180 0.42979 2 0 0.11994 3 180
 8678 1 3.39838 1 180
 8679 1 1.82913 3 0
 8680 3 0.38981 1 0 1.19943 2 0 1.41932 3 180
 8681 1 0.19990 3 0
 8682 1 0.63969 3 180
 8683 3 0.80961 1 180 1.06949 2 0 0.10995 3 0
 8684 1 0.19990 3 0
 8685 3 0.28986 1 0 0.54974 2 0 0.07996 3 0
 8686 1 0.99952 3 0
 8687 1 0.29986 3 0
 8688 1 0.29986 3 0
 8689 1 0.28386 3 0
 8690 3 0.11994 1 180 0.02999 2 180 0.13993 3 0
 8691 3 0.11994 1 180 0.02999 2 180 0.13993 3 0
 8692 1 1.82913 3 0
 8693 3 0.38981 1 0 1.19943 2 0 1.41932 3 180
 8694 1 0.19990 3 0
 8695 1 2.36887 3 0
 8696 3 2.06901 1 0 2.12898 2 0 2.70871 3 180
 8697 1 0.19990 3 0
 8698 3 2.06901 1 0 2.12898 2 0 2.70871 3 180
 8699 3 0.39981 1 180 0.47977 2 0 0.18991 3 0
 8700 3 0.39981 1 180 0.47977 2 0 0.18991 3 0
 8701 3 0.63969 1 180 0.02999 2 180 0.60971 3 0
 8702 1 0.42979 3 0
 8703 3 2.57877 1 0 0.23989 2 180 0.35983 3 180
 8704 1 0.29986 3 0
 8705 3 0.20990 1 0 0.85959 2 0 0.34983 3 180
 8706 3 0.17991 1 180 0.44978 2 180 0.74964 3 0
 8707 1 0.28386 3 0
 8708 1 0.19990 3 0
 8709 1 0.93955 3 0
 8710 1 0.19990 3 0
 8711 3 0.58972 1 0 0.37982 2 0 0.12994 3 0
 8712 3 0.58972 1 0 0.37982 2 0 0.12994 3 0
 8713 3 0.58972 1 0 0.37982 2 0 0.12994 3 0
 8714 1 0.19990 3 0
 8715 1 1.23941 3 0
 8716 1 0.19990 3 0
 8717 1 0.19990 3 0
 8718 3 2.22893 1 0 2.99857 2 0 0.87958 3 180
 8719 1 0.61970 3 0
 8720 3 2.22893 1 0 2.99857 2 0 0.87958 3 180
 8721 3 2.22893 1 0 2.99857 2 0 0.87958 3 180
 8722 3 0.10995 1 180 0.65968 2 0 0.01999 3 180
 8723 1 1.23941 3 0
 8724 1 0.19990 3 0
 8725 3 0.10995 1 180 0.65968 2 0 0.01999 3 180
 8726 3 0.28986 1 0 0.54974 2 0 0.07996 3 0
 8727 3 0.55973 1 180 0.29986 2 180 0.34983 3 180
 8728 1 0.93955 3 0
 8729 1 0.19990 3 0
 8730 3 0.55973 1 180 0.29986 2 180 0.34983 3 180
 8731 1 0.93955 3 0
 8732 3 0.01000 1 0 0.13993 2 0 0.69967 3 180
 8733 1 0.19990 3 0
 8734 4 2.49881 1 180 0.39981 2 0 0.79962 3 180 0.19990 4 180
 8735 3 1.58924 1 0 0.94955 2 180 1.94907 3 0
 8736 1 0.19990 3 0
 8737 3 0.39981 1 180 0.47977 2 0 0.18991 3 0
 8738 3 0.28986 1 0 0.54974 2 0 0.07996 3 0
 8739 1 0.19990 3 0
 8740 3 0.20990 1 180 0.33984 2 180 0.73965 3 180
 8741 2 0.29986 1 180 0.79962 2 180
 8742 3 0.01000 1 180 0.71966 2 0 0.72965 3 0
 8743 1 0.19990 3 0
 8744 3 0.01000 1 180 0.71966 2 0 0.72965 3 0
 8745 3 0.28986 1 0 0.54974 2 0 0.07996 3 0
 8746 1 0.19990 3 0
 8747 3 0.11994 1 0 0.41980 2 0 0.28986 3 0
 8748 3 0.63969 1 180 0.02999 2 180 0.60971 3 0
 8749 3 0.63969 1 180 0.02999 2 180 0.60971 3 0
 8750 3 0.63969 1 180 0.02999 2 180 0.60971 3 0
 8751 3 0.59971 1 180 0.64969 2 0 0.04998 3 0
 8752 1 0.99952 3 0
 8753 1 0.44978 3 0
 8754 1 0.29986 3 0
 8755 1 0.60971 3 0
 8756 1 0.60971 3 0
 8757 3 0.23989 1 0 2.99857 2 180 1.37934 3 180
 8758 3 0.18991 1 180 2.84864 2 180 0.85959 3 0
 8759 3 2.49881 1 180 1.99904 2 0 2.49881 3 0
 8760 3 2.49881 1 180 1.99904 2 0 2.49881 3 0
 8761 1 1.26939 3 0
 8762 3 2.49881 1 180 1.99904 2 0 2.49881 3 0
 8763 3 2.49881 1 180 1.99904 2 0 2.49881 3 0
 8764 1 1.26939 3 0
 8765 3 2.49881 1 180 1.99904 2 0 2.49881 3 0
 8766 1 0.29986 3 0
 8767 3 1.19943 1 180 0.09995 2 180 0.09995 3 180
 8768 1 0.29986 3 0
 8769 1 0.29986 3 0
 8770 1 0.24988 3 0
 8771 1 0.28386 3 0
 8772 1 0.28386 3 0
 8773 3 0.11994 1 180 0.02999 2 180 0.13993 3 0
 8774 3 0.20990 1 0 0.85959 2 0 0.34983 3 180
 8775 3 0.17991 1 180 0.44978 2 180 0.74964 3 0
 8776 1 0.28386 3 0
 8777 1 0.18991 3 0
 8778 1 0.40980 3 180
 8779 3 0.72965 1 0 2.95859 2 0 1.38934 3 0
 8780 1 0.19990 3 0
 8781 1 0.19990 3 0
 8782 1 0.19990 3 0
 8783 1 0.19990 3 0
 8784 3 2.64873 1 180 0.00000 2 0 0.12994 3 180
 8785 3 2.86863 1 180 0.02999 2 0 0.22989 3 0
 8786 1 0.13993 3 0
 8787 1 0.13993 3 0
 8788 3 0.75964 1 0 0.67968 2 0 0.25988 3 180
 8789 1 0.20990 3 0
 8790 1 0.00000 3 0
 8791 1 0.09995 3 0
 8792 1 0.19990 3 0
 8793 1 0.19990 3 0
 8794 1 0.19990 3 0
 8795 1 0.19990 3 0
 8796 1 0.19990 3 0
 8797 1 0.19990 3 0
 8798 1 0.19990 3 0
 8799 1 0.19990 3 0
 8800 1 0.19990 3 0
 8801 1 0.19491 1 0
 8802 2 0.59971 3 0 0.59971 6 180
 8803 1 0.00000 3 0
 8804 1 0.00000 3 0
 8805 1 0.00000 3 0
 8806 1 0.00000 3 0
 8807 2 0.09995 3 0 0.49976 4 0
 8808 1 0.59971 6 0
 8809 1 0.49976 4 180
 8810 1 0.59971 6 0
 8811 1 0.00000 3 0
 8812 1 0.00000 3 0
 8813 1 0.00000 2 0
 8814 1 0.00000 3 0
 8815 4 2.49881 1 180 0.39981 2 0 0.79962 3 180 0.19990 4 180
 8816 4 2.49881 1 180 0.39981 2 0 0.79962 3 180 0.19990 4 180
 8817 4 2.49881 1 180 0.39981 2 0 0.79962 3 180 0.19990 4 180
 8818 4 2.49881 1 180 0.39981 2 0 0.79962 3 180 0.19990 4 180
 8819 4 2.49881 1 180 0.39981 2 0 0.79962 3 180 0.19990 4 180
 8820 1 0.19491 3 0
 8821 5 1.89909 1 180 0.39981 2 0 0.00000 3 180 0.19990 4 0 0.59971 5 0
 8822 5 1.89909 1 180 0.39981 2 0 0.00000 3 180 0.19990 4 0 0.59971 5 0
 8823 3 1.49928 1 0 0.29986 2 180 0.49976 3 0
 8824 2 0.99952 1 0 0.49976 3 0
 8825 1 0.59971 6 180
 8826 1 0.00000 6 180
 8827 1 0.49976 1 180
 8828 1 1.09947 1 180
 8829 1 0.49976 1 180
 8830 1 1.09947 1 180
 8831 1 0.59971 6 180
 8832 1 0.00000 3 0
 8833 1 0.00000 3 0
 8834 1 0.39981 6 0
 8835 1 0.00000 3 0
 8836 1 2.49881 1 180
 8837 1 0.22989 2 180
 8838 3 0.19990 1 180 1.84912 2 180 0.99952 3 0
 8839 1 0.99952 3 0
 8840 1 0.00000 3 180
 8841 1 0.00000 3 0
 8842 1 0.00000 3 0
 8843 1 0.29986 3 0
 8844 1 0.00000 3 180
 8845 1 0.79962 3 180
 8846 2 0.29986 1 180 0.79962 2 180
 8847 1 0.00000 3 0
 8848 1 0.00000 3 0
 8849 1 0.00000 3 0
 8850 1 0.00000 3 0
 8851 1 0.00000 3 0
 8852 1 0.59971 6 0
 8853 1 0.00000 3 0
 8854 2 0.99952 1 180 0.79962 3 180
 8855 1 0.69967 3 0
 8856 1 0.19990 1 120
 8857 1 0.19990 1 120
 8858 2 0.99952 1 0 0.49976 3 0
 8859 3 1.32936 1 0 0.17991 2 0 0.31985 3 0
 8860 1 0.19990 1 120
 8861 2 0.39081 1 180 0.37282 3 0
 8862 1 0.69967 3 0
 8863 1 0.69967 3 0
 8864 1 0.00000 3 0
 8865 1 0.14993 3 0
 8866 1 0.14993 3 0
 8867 1 0.14993 3 0
 8868 3 1.24940 1 180 0.09995 2 0 0.14993 3 180
 8869 1 0.19491 3 0
 8870 1 0.49976 2 0
 8871 1 0.49976 2 0
 8872 1 0.19491 1 0
 8873 3 0.39981 3 180 0.39981 4 0 0.69967 5 180
 8874 1 1.09947 1 180
 8875 1 1.09947 1 0
 8876 1 0.00000 3 0
 8877 1 0.99952 1 0
 8878 1 0.00000 3 0
 8879 1 0.00000 3 0
 8880 1 0.00000 3 0
 8881 2 0.79962 1 180 0.69967 3 0
 8882 1 0.89957 1 0
 8883 2 1.09947 1 180 0.19990 3 0
 8884 1 1.39933 1 0
 8885 3 0.59971 1 180 0.49976 2 -70 0.19990 3 0
 8886 1 0.29986 1 0
 8887 1 0.00000 3 0
 8888 1 0.00000 3 0
 8889 1 3.39838 1 180
 8890 1 3.39838 1 180
 8891 1 3.39838 1 180
 8892 1 3.39838 1 180
 8893 1 0.19491 3 0
 8894 1 0.19990 3 0
 8895 1 0.19491 3 0
 8896 1 0.19491 3 0
 8897 1 0.19491 3 0
 8898 1 0.19491 3 0
 8899 1 0.19491 3 0
 8900 1 0.19491 3 0
 8901 1 0.19491 3 0
 8902 1 0.19491 3 0
 8903 1 0.19491 3 0
 8904 1 0.19491 3 0
 8905 1 0.19491 3 0
 8906 1 0.19491 3 0
 8907 1 0.19491 3 0
 8908 1 0.00000 3 0
 8909 1 0.19491 3 180
 8910 1 0.19491 3 0
 8911 1 0.19491 3 180
 8912 1 0.19491 3 0
 8913 1 0.19491 3 0
 8914 1 0.19491 3 0
 8915 1 0.00000 3 0
 8916 1 0.09995 3 0
 8917 1 0.19491 3 0
 8918 1 0.19491 3 0
 8919 1 0.19491 3 0
 8920 1 0.19491 3 0
 8921 1 0.19491 3 0
 8922 1 0.19491 3 0
 8923 1 0.03998 3 0
 8924 1 0.19491 3 0
 8925 1 0.49976 3 180
 8926 1 0.19491 3 0
 8927 1 0.19491 3 0
 8928 1 0.19491 3 0
 8929 1 0.14993 3 0
 8930 1 0.19491 3 0
 8931 1 0.14993 3 0
 8932 1 0.14993 3 0
 8933 1 0.19491 3 0
 8934 1 0.19491 3 0
 8935 1 0.19491 3 0
 8936 1 0.19491 3 0
 8937 1 0.19491 3 0
 8938 1 0.19491 3 0
 8939 1 0.19491 3 0
 8940 1 0.19491 3 0
 8941 1 0.19491 3 0
 8942 1 0.00000 3 0
 8943 1 0.00000 3 0
 8944 1 0.19491 3 0
 8945 1 0.19491 3 0
 8946 1 0.00000 3 0
 8947 1 0.00000 3 0
 8948 1 0.09495 3 180
 8949 1 0.19491 3 0
 8950 1 0.00000 3 0
 8951 1 0.19491 3 0
 8952 1 0.00000 3 0
 8953 1 0.19491 3 0
 8954 1 0.19491 3 0
 8955 1 0.19491 3 0
 8956 1 0.00000 3 0
 8957 1 0.19491 3 0
 8958 1 0.00000 3 0
 8959 1 0.19491 3 0
 8960 1 0.19491 3 0
 8961 1 0.19491 3 0
 8962 1 0.00000 3 0
 8963 1 0.00000 3 0
 8964 1 0.29986 3 180
 8965 1 0.00000 3 0
 8966 1 0.19491 3 0
 8967 1 0.19491 3 0
 8968 1 0.19491 3 0
 8969 1 0.00000 3 0
 8970 1 0.19491 3 0
 8971 1 0.09995 6 180
 8972 1 0.09995 6 180
 8973 3 0.99952 1 0 1.89909 2 180 0.37982 3 0
 8974 2 0.29986 1 0 0.79962 2 180
 8975 1 0.14993 3 0
 8976 1 0.14993 3 0
 8977 1 0.14993 3 0
 8978 1 0.14993 3 0
 8979 1 0.14993 3 0
 8980 1 0.14993 3 0
 8981 1 0.14993 3 0
 8982 1 0.14993 3 0
 8983 1 0.14993 3 0
 8984 1 0.14993 3 0
 8985 1 0.19491 3 0
 8986 1 0.19491 3 0
 8987 1 0.14993 3 0
 8988 1 0.14993 3 0
 8989 1 0.14993 3 0
 8990 1 0.14993 3 0
 8991 1 0.14993 3 0
 8992 1 0.14993 3 0
 8993 1 0.14993 3 0
 8994 1 0.14993 3 0
 8995 1 0.14993 3 0
 8996 1 0.19491 3 0
 8997 1 0.14993 3 0
 8998 1 0.19491 3 0
 8999 4 0.49976 1 180 0.69967 2 0 0.39981 3 0 0.39981 5 0
 9000 4 0.49976 1 180 0.69967 2 0 0.39981 3 0 0.39981 5 0
 9001 3 0.49976 1 0 0.09995 3 180 0.49976 5 0
 9002 2 0.99952 1 0 0.49976 3 0
 9003 3 0.29986 1 0 0.99952 2 180 0.49976 3 0
 9004 1 0.14993 3 0
 9005 1 0.14993 3 0
 9006 1 1.79914 3 0
 9007 1 1.99904 1 180
 9008 1 1.99904 1 180
 9009 1 0.49976 3 0
 9010 1 0.23989 1 180
 9011 2 0.39081 1 180 0.37282 3 0
 9012 1 0.27987 3 0
 9013 1 0.14993 3 0
 9014 1 0.14993 3 0
 9015 1 0.14993 3 0
 9016 1 0.24988 3 0
 9017 1 0.14993 3 0
 9018 1 0.19491 3 0
 9019 1 0.29986 3 0
 9020 1 0.09995 3 0
 9021 1 0.00000 3 180
 9022 1 0.19990 3 180
 9023 1 0.29986 3 0
 9024 1 0.09995 3 0
 9025 1 0.00000 3 180
 9026 1 0.29986 3 0
 9027 2 2.19895 2 180 0.54974 6 180
 9028 1 0.19491 3 0
 9029 1 0.19491 3 0
 9030 1 0.19491 3 0
 9031 1 0.00000 3 0
 9032 1 0.19491 3 0
 9033 1 0.19491 1 0
 9034 1 0.19491 1 0
 9035 1 0.19491 1 0
 9036 1 0.14993 3 0
 9037 1 0.19491 3 0
 9038 1 0.19491 1 0
 9039 1 0.00000 3 180
 9040 1 0.27987 3 0
 9041 1 0.09995 3 0
 9042 1 0.14993 3 0
 9043 1 0.14993 3 0
 9044 1 0.14993 3 0
 9045 1 0.19491 3 0
 9046 1 0.19491 3 0
 9047 1 0.00000 3 0
 9048 1 0.00000 3 0
 9049 1 0.00000 3 0
 9050 1 0.19491 3 0
 9051 1 0.19491 3 0
 9052 1 0.00000 3 0
 9053 1 0.00000 3 0
 9054 1 0.19491 3 0
 9055 1 0.19491 3 0
 9056 1 0.19491 1 0
 9057 1 0.19491 3 0
 9058 1 0.19491 3 0
 9059 1 0.00000 6 180
 9060 1 0.18991 3 0
 9061 1 0.14993 3 0
 9062 1 0.14993 3 0
 9063 1 0.14993 3 0
 9064 1 0.14993 3 0
 9065 1 0.14993 3 0
 9066 3 0.89957 1 180 0.39981 2 180 0.19990 3 180
 9067 4 1.19943 1 180 0.09995 2 180 0.09995 3 180 0.00000 6 0
 9068 4 1.19943 1 180 0.09995 2 180 0.09995 3 180 0.00000 6 0
 9069 4 1.19943 1 180 0.09995 2 180 0.09995 3 180 0.00000 6 0
 9070 4 1.19943 1 180 0.09995 2 180 0.09995 3 180 0.00000 6 0
 9071 4 1.19943 1 180 0.09995 2 180 0.09995 3 180 0.00000 6 0
 9072 4 1.19943 1 180 0.09995 2 180 0.09995 3 180 0.00000 6 0
 9073 4 1.19943 1 180 0.09995 2 180 0.09995 3 180 0.00000 6 0
 9074 4 1.19943 1 180 0.09995 2 180 0.09995 3 180 0.00000 6 0
 9075 1 1.49928 2 0
 9076 1 1.49928 2 0
 9077 1 0.00000 3 0
 9078 4 1.59924 3 0 0.00000 4 180 0.00000 5 0 0.39981 6 0
 9079 1 0.00000 3 0
 9080 3 1.99904 3 180 0.39981 5 0 0.79962 6 0
 9081 3 1.99904 3 180 0.39981 5 0 0.79962 6 0
 9082 3 1.99904 3 180 0.39981 5 0 0.79962 6 0
 9083 2 0.79962 3 180 0.19990 4 0
 9084 2 0.79962 3 180 0.19990 4 0
 9085 4 0.19990 3 0 0.59971 4 180 0.29986 5 0 0.49976 6 0
 9086 4 1.59924 3 0 0.00000 4 180 0.00000 5 0 0.39981 6 0
 9087 4 0.19990 3 0 0.19990 4 0 0.49976 5 0 0.49976 6 180
 9088 4 0.19990 3 0 0.59971 4 180 0.29986 5 0 0.49976 6 0
 9089 3 1.59924 3 180 0.00000 5 0 0.59971 6 0
 9090 1 0.19491 3 0
 9091 1 0.00000 3 0
 9092 1 0.00000 3 0
 9093 3 1.99904 3 180 0.39981 5 0 0.79962 6 0
 9094 1 0.19491 3 0
 9095 1 0.69967 2 0
 9096 1 0.19491 3 0
 9097 1 0.14993 3 0
 9098 2 0.79962 3 180 0.19990 4 0
 9099 2 0.79962 3 180 0.19990 4 0
 9100 1 0.00000 3 180
 9101 1 0.09995 3 0
 9102 1 0.09995 3 0
 9103 1 0.09995 3 0
 9104 1 0.09995 3 0
 9105 1 0.09995 3 0
 9106 3 0.79962 2 120 0.39981 3 0 0.49976 4 0
 9107 3 0.79962 2 120 0.39981 3 0 0.49976 4 0
 9108 1 0.09995 3 0
 9109 1 0.09995 3 0
 9110 1 0.09995 3 0
 9111 1 0.09995 3 0
 9112 2 0.94955 2 0 0.49976 3 0
 9113 2 0.94955 2 0 0.49976 3 0
 9114 2 0.94955 2 0 0.49976 3 0
 9115 2 0.94955 2 0 0.49976 3 0
 9116 2 0.94955 2 0 0.49976 3 0
 9117 2 0.94955 2 0 0.49976 3 0
 9118 2 0.94955 2 0 0.49976 3 0
 9119 2 0.94955 2 0 0.49976 3 0
 9120 1 0.00000 3 0
 9121 1 0.00000 3 0
 9122 1 0.00000 3 0
 9123 1 0.19990 1 120
 9124 1 0.19990 1 120
 9125 1 0.00000 3 0
 9126 1 0.00000 3 0
 9127 2 0.02999 2 0 0.02999 3 0
 9128 2 0.09995 2 0 0.02999 3 0
 9129 2 0.02999 2 0 0.02999 3 0
 9130 2 0.09995 2 0 0.02999 3 0
 9131 2 0.02999 2 0 0.02999 3 0
 9132 2 0.09995 2 0 0.02999 3 0
 9133 2 0.09995 2 0 0.02999 3 0
 9134 1 0.14993 3 0
 9135 3 1.49928 1 180 0.64969 2 180 0.99952 3 0
 9136 2 1.39933 1 220 0.39981 5 180
 9137 2 1.39933 1 220 0.39981 5 180
 9138 1 0.14993 3 0
 9139 1 0.24488 1 120
 9140 1 0.00000 3 0
 9141 1 0.00000 3 0
 9142 1 0.19990 1 120
 9143 1 0.19990 1 120
 9144 1 0.00000 3 0
 9145 1 0.14993 1 0
 9146 1 0.14993 1 0
 9147 3 0.59971 1 180 0.64969 2 0 0.04998 3 0
 9148 1 0.49976 4 180
 9149 3 0.39981 1 180 0.29986 2 0 0.09995 3 0
 9150 1 0.19491 3 0
 9151 1 3.99809 2 180
 9152 1 3.09852 2 180
 9153 1 3.09852 2 180
 9154 1 0.00000 3 180
 9155 1 1.49928 2 180
 9156 1 3.79818 2 180
 9157 1 5.59732 2 180
 9158 1 5.59732 2 180
 9159 1 9.99522 2 180
 9160 1 3.99809 2 180
 9161 1 0.00000 2 180
 9162 1 0.00000 3 0
 9163 1 0.00000 3 0
 9164 1 2.99857 3 0
 9165 1 0.00000 3 0
 9166 1 0.00000 3 0
 9167 3 0.49976 1 0 0.69967 2 180 0.44978 3 0
 9168 1 0.39981 2 180
 9169 1 0.99952 2 180
 9170 1 1.29938 1 180
 9171 1 1.49928 2 180
 9172 1 0.49976 2 180
 9173 1 1.79914 2 180
 9174 1 0.18991 3 0
 9175 1 0.29986 3 0
 9176 1 0.99952 2 0
 9177 1 0.18991 3 0
 9178 1 0.18991 3 0
 9179 1 1.79914 1 0
 9180 1 1.79914 1 0
 9181 1 0.18991 3 0
 9182 1 1.49928 2 180
 9183 1 1.79914 2 180
 9184 1 1.59924 2 180
 9185 1 10.99474 2 180
 9186 1 2.99857 2 180
 9187 1 10.99474 2 180
 9188 1 10.99474 2 180
 9189 1 5.99713 2 180
 9190 1 2.99857 2 180
 9191 1 0.45978 3 0
 9192 1 0.99952 2 180
 9193 1 5.99713 2 180
 9194 1 0.49976 3 180
 9195 1 0.14993 3 0
 9196 1 0.49976 3 180
 9197 1 4.59780 2 180
 9198 1 0.18991 3 0
 9199 1 0.29986 3 0
 9200 1 0.99952 2 0
 9201 1 0.18991 3 0
 9202 1 0.19990 2 180
 9203 1 0.18991 3 0
 9204 1 1.79914 1 0
 9205 1 1.79914 1 0
 9206 1 0.18991 3 0
 9207 1 9.99522 2 180
 9208 1 1.99904 2 180
 9209 1 0.18991 3 0
 9210 1 1.99904 2 180
 9211 1 1.49928 2 180
 9212 1 1.59924 2 180
 9213 1 10.99474 2 180
 9214 1 0.59971 2 180
 9215 1 10.99474 2 180
 9216 1 1.49928 2 180
 9217 1 0.00000 3 0
 9218 1 0.29986 3 0
 9219 1 0.99952 2 0
 9220 1 0.00000 3 0
 9221 1 3.79818 2 180
 9222 1 0.45978 3 0
 9223 1 0.99952 2 180
 9224 1 0.59971 2 180
 9225 1 0.00000 3 0
 9226 1 0.29986 3 0
 9227 1 0.99952 2 0
 9228 1 0.00000 3 0
 9229 1 6.99666 2 180
 9230 1 6.99666 2 180
 9231 1 0.99952 2 180
 9232 2 2.24892 2 180 1.29938 3 0
 9233 1 0.49976 2 180
 9234 1 4.79771 2 180
 9235 1 0.99952 2 180
 9236 1 1.99904 2 180
 9237 1 0.00000 3 0
 9238 1 6.99666 2 180
 9239 1 6.99666 2 180
 9240 1 2.99857 2 180
 9241 1 5.99713 2 180
 9242 1 2.99857 2 180
 9243 1 5.99713 2 180
 9244 1 2.99857 2 180
 9245 1 0.29986 2 180
 9246 1 0.29986 2 180
 9247 1 5.59732 2 180
 9248 1 5.59732 2 180
 9249 1 0.00000 2 180
 9250 1 0.29986 2 180
 9251 1 1.49928 2 180
 9252 1 1.49928 2 180
 9253 1 0.29986 2 180
 9254 1 4.19799 2 180
 9255 1 2.39885 2 180
 9256 1 0.00000 2 180
 9257 1 10.99474 2 180
 9258 1 0.00000 2 180
 9259 1 1.59924 2 180
 9260 1 10.99474 2 180
 9261 1 10.99474 2 180
 9262 1 0.00000 2 180
 9263 1 13.99331 2 180
 9264 1 0.00000 2 180
 9265 1 13.99331 2 180
 9266 1 0.00000 2 180
 9267 1 1.99904 2 180
 9268 1 5.99713 2 180
 9269 1 1.49928 2 180
 9270 1 1.19943 2 180
 9271 1 1.19943 2 180
 9272 1 1.19943 2 180
 9273 1 0.00000 2 180
 9274 1 2.99857 2 180
 9275 1 3.99809 2 180
 9276 1 3.59828 2 180
 9277 1 3.59828 2 180
 9278 1 0.00000 2 180
 9279 1 0.00000 2 180
 9280 1 3.29842 2 180
 9281 2 0.24988 2 180 0.04998 3 0
 9282 1 0.01000 3 0
 9283 1 0.29986 1 0
 9284 1 0.29986 1 0
 9285 1 0.29986 1 0
 9286 1 0.01000 3 0
 9287 1 0.25988 1 0
 9288 1 0.04998 3 0
 9289 1 0.04998 3 0
 9290 1 0.04998 3 0
 9291 1 0.99952 2 180
 9292 1 4.79771 2 180
 9293 1 0.59971 2 180
 9294 1 1.99904 2 180
 9295 1 0.49976 2 180
 9296 1 3.29842 2 180
 9297 1 3.79818 2 180
 9298 1 3.39838 2 180
 9299 1 2.99857 2 180
 9300 1 3.99809 2 180
 9301 1 13.99331 2 180
 9302 1 0.00000 3 0
 9303 1 0.00000 3 0
 9304 1 2.99857 3 0
 9305 1 0.00000 3 0
 9306 1 0.00000 3 0
 9307 1 0.99952 2 180
 9308 1 1.29938 1 180
 9309 1 6.99666 2 180
 9310 1 6.99666 2 180
 9311 1 6.99666 2 180
 9312 1 0.59971 2 180
 9313 1 3.39838 2 180
 9314 1 0.99952 2 180
 9315 1 1.44931 2 180
 9316 1 0.00000 2 180
 9317 1 0.14993 3 0
 9318 1 0.14993 3 0
 9319 1 10.99474 2 180
 9320 1 5.99713 2 180
 9321 1 4.59780 2 180
 9322 1 1.79914 2 180
 9323 1 8.49594 2 180
 9324 1 6.99666 2 180
 9325 1 1.99904 2 180
 9326 1 0.19990 2 180
 9327 1 1.99904 2 180
 9328 1 0.34983 3 0
 9329 1 3.99809 2 180
 9330 3 1.49928 1 0 0.99952 2 0 0.19990 3 180
 9331 1 0.14993 3 0
 9332 2 0.99952 2 0 0.19990 3 180
 9333 2 1.99904 1 0 0.29986 3 0
 9334 1 0.14993 3 0
 9335 2 1.99904 1 0 0.29986 3 0
 9336 1 0.08996 3 0
 9337 3 0.52975 1 180 0.79962 2 0 0.08996 3 0
 9338 3 0.52975 1 180 0.79962 2 0 0.06997 3 0
 9339 1 1.99904 2 180
 9340 1 1.99904 2 180
 9341 1 1.99904 2 180
 9342 1 3.99809 2 180
 9343 1 0.00000 2 180
 9344 1 3.99809 2 180
 9345 1 0.00000 2 180
 9346 1 0.00000 2 180
 9347 1 0.99952 1 0
 9348 1 0.99952 2 180
 9349 3 0.39981 1 0 0.39981 2 50 0.34983 3 0
 9350 3 0.39981 1 0 0.39981 2 50 0.34983 3 0
 9351 3 1.49928 1 180 1.49928 2 0 1.09947 3 180
 9352 3 1.34935 1 180 0.99952 2 0 0.19990 3 180
 9353 1 0.49976 2 180
 9354 1 2.99857 2 180
 9355 1 1.59924 2 180
 9356 1 10.99474 2 180
 9357 1 1.59924 2 180
 9358 1 1.59924 2 180
 9359 1 2.49881 2 180
 9360 1 1.99904 2 180
 9361 1 10.99474 2 180
 9362 1 1.99904 2 180
 9363 1 6.99666 2 180
 9364 1 1.99904 2 180
 9365 1 0.49976 2 180
 9366 1 1.99904 2 180
 9367 1 1.79914 2 180
 9368 1 1.99904 2 180
 9369 1 3.99809 2 180
 9370 1 5.99713 2 180
 9371 1 0.00000 3 0
 9372 1 0.00000 3 0
 9373 1 0.79962 2 0
 9374 1 0.00000 3 0
 9375 1 5.99713 2 180
 9376 1 0.00000 3 0
 9377 1 0.00000 3 0
 9378 1 0.00000 3 0
 9379 1 0.00000 3 0
 9380 1 0.79962 2 0
 9381 1 0.00000 3 0
 9382 2 0.89957 2 180 0.74964 3 0
 9383 1 1.79914 2 180
 9384 1 3.99809 2 180
 9385 1 5.99713 2 180
 9386 1 1.19943 2 180
 9387 1 10.99474 2 180
 9388 1 5.99713 2 180
 9389 1 9.99522 2 180
 9390 1 0.49976 2 180
 9391 1 13.99331 2 180
 9392 1 5.19752 2 180
 9393 1 8.49594 2 180
 9394 1 5.19752 2 180
 9395 1 0.18991 3 0
 9396 1 0.00000 3 0
 9397 1 0.79962 2 0
 9398 1 0.18991 3 0
 9399 1 0.19990 2 180
 9400 1 5.99713 2 180
 9401 1 0.18991 3 0
 9402 1 0.18991 3 0
 9403 1 0.18991 3 0
 9404 1 0.00000 3 0
 9405 1 0.79962 2 0
 9406 1 0.18991 3 0
 9407 1 5.99713 2 180
 9408 1 1.19943 2 180
 9409 1 10.99474 2 180
 9410 1 5.99713 2 180
 9411 1 10.99474 2 180
 9412 2 0.22989 1 0 0.69967 2 180
 9413 1 0.40980 3 0
 9414 1 0.00000 2 180
 9415 1 1.99904 2 180
 9416 1 1.19943 2 180
 9417 1 1.79914 2 180
 9418 1 1.99904 2 180
 9419 1 5.99713 2 180
 9420 1 0.14993 3 0
 9421 1 0.14993 3 0
 9422 1 0.14993 3 0
 9423 1 1.99904 2 180
 9424 1 9.99522 2 180
 9425 1 1.99904 2 180
 9426 1 10.99474 2 180
 9427 1 1.19943 2 180
 9428 1 1.99904 2 180
 9429 1 7.99618 2 180
 9430 1 4.99761 2 180
 9431 1 1.49928 2 180
 9432 1 0.19990 2 180
 9433 1 1.99904 2 180
 9434 1 1.99904 2 180
 9435 1 1.79914 2 180
 9436 1 15.99236 2 180
 9437 1 10.99474 2 180
 9438 1 0.39981 6 0
 9439 1 0.39981 6 0
 9440 1 0.19990 4 180
 9441 1 0.00000 3 0
 9442 1 2.49881 1 180
 9443 5 1.89909 1 180 0.39981 2 0 0.00000 3 180 0.19990 4 0 0.59971 5 0
 9444 2 0.49976 1 0 0.79962 3 0
 9445 1 0.29986 2 180
 9446 1 10.99474 2 180
 9447 1 10.99474 2 180
 9448 1 10.99474 2 180
 9449 1 0.29986 2 180
 9450 1 10.99474 2 180
 9451 1 10.99474 2 180
 9452 1 10.99474 2 180
 9453 1 0.29986 3 0
 9454 1 0.00000 3 180
 9455 1 0.99952 3 0
 9456 1 0.00000 3 180
 9457 1 0.00000 3 0
 9458 1 0.00000 3 0
 9459 1 0.19990 3 180
 9460 1 0.00000 3 180
 9461 1 0.00000 3 0
 9462 1 0.00000 3 180
 9463 1 2.49881 1 180
 9464 1 0.00000 6 0
 9465 1 0.79962 3 180
 9466 1 0.00000 6 0
 9467 1 0.19990 4 0
 9468 3 0.00000 1 180 0.29986 2 0 0.09995 3 180
 9469 1 1.99904 2 180
 9470 1 0.00000 6 0
 9471 2 0.29986 1 180 0.79962 2 180
 9472 1 0.29986 2 180
 9473 1 10.99474 2 180
 9474 1 10.99474 2 180
 9475 1 10.99474 2 180
 9476 1 0.29986 2 180
 9477 1 10.99474 2 180
 9478 1 10.99474 2 180
 9479 1 10.99474 2 180
 9480 1 0.79962 3 0
 9481 1 0.00000 3 0
 9482 1 0.00000 3 0
 9483 1 1.99904 3 0
 9484 1 1.99904 3 0
 9485 1 1.99904 3 0
 9486 1 0.39981 6 0
 9487 1 0.00000 2 180
 9488 1 0.00000 1 0
 9489 1 0.00000 2 180
 9490 1 0.00000 2 180
 9491 1 3.09852 2 180
 9492 1 3.09852 2 180
 9493 2 1.19943 2 0 0.09995 3 180
 9494 3 1.99904 3 180 0.39981 5 0 0.79962 6 0
 9495 1 0.00000 3 0
 9496 1 0.00000 3 0
 9497 2 0.79962 3 180 0.19990 4 0
 9498 4 0.19990 3 0 0.59971 4 180 0.29986 5 0 0.49976 6 0
 9499 4 1.59924 3 0 0.00000 4 180 0.00000 5 0 0.39981 6 0
 9500 4 0.19990 3 0 0.19990 4 0 0.49976 5 0 0.49976 6 180
 9501 3 1.99904 3 180 0.39981 5 0 0.79962 6 0
 9502 1 0.19491 3 180
 9503 1 0.69967 2 0
 9504 3 1.59924 3 180 0.00000 5 0 0.59971 6 0
 9505 1 0.19491 3 180
 9506 1 0.00000 3 0
 9507 1 0.00000 3 0
 9508 1 0.00000 3 0
 9509 1 3.39838 1 180
 9510 2 0.79962 3 180 0.19990 4 0
 9511 2 0.79962 3 180 0.19990 4 0
 9512 1 0.00000 3 0
 9513 1 0.00000 3 0
 9514 1 0.00000 3 0
 9515 1 0.99952 2 180
 9516 1 0.00000 3 180
 9517 1 1.09947 1 180
 9518 1 1.09947 1 0
 9519 1 0.00000 3 0
 9520 1 0.99952 1 0
 9521 1 0.00000 3 0
 9522 1 0.00000 3 0
 9523 1 0.00000 3 0
 9524 2 0.79962 1 180 0.69967 3 0
 9525 1 0.89957 1 0
 9526 2 1.09947 1 180 0.19990 3 0
 9527 1 1.39933 1 0
 9528 1 0.00000 3 0
 9529 1 0.00000 3 0
 9530 2 1.99904 1 180 0.89957 6 180
 9531 3 0.59971 1 180 0.49976 2 -70 0.19990 3 0
 9532 1 0.29986 1 0
 9533 1 3.39838 1 180
 9534 1 3.39838 1 180
 9535 1 3.39838 1 180
 9536 1 3.39838 1 180
 9537 1 3.39838 1 180
 9538 1 0.19990 3 0
 9539 1 0.19990 3 0
 9540 1 0.19990 3 0
 9541 1 0.19990 3 0
 9542 1 0.29986 3 0
 9543 1 0.00000 3 180
 9544 1 0.99952 3 0
 9545 1 0.00000 3 180
 9546 1 0.00000 3 0
 9547 1 0.19990 3 180
 9548 1 0.00000 3 180
 9549 1 0.00000 3 0
 9550 1 0.00000 3 180
 9551 1 0.59971 6 180
 9552 1 0.19990 4 0
 9553 3 0.00000 1 180 0.29986 2 0 0.09995 3 180
 9554 1 0.22989 2 180
 9555 1 0.22989 2 180
 9556 1 0.00000 3 0
 9557 1 0.00000 3 0
 9558 1 0.39981 6 0
 9559 1 2.49881 1 180
 9560 1 0.19990 3 180
 9561 1 0.19990 3 180
 9562 1 0.49976 4 180
 9563 1 0.49976 4 180
 9564 3 0.99952 4 0 0.29986 5 180 0.29986 6 180
 9565 1 0.00000 3 0
 9566 1 2.49881 1 180
 9567 1 1.89909 1 180
 9568 3 0.29986 1 0 0.99952 2 180 0.49976 3 0
 9569 1 0.59971 6 0
 9570 1 0.00000 3 0
 9571 1 0.14993 3 0
 9572 1 0.14993 3 0
 9573 1 0.49976 1 180
 9574 1 1.09947 1 180
 9575 1 0.00000 3 180
 9576 1 0.00000 3 180
 9577 1 0.49976 1 180
 9578 1 1.09947 1 180
 9579 1 0.00000 3 180
 9580 1 0.00000 3 180
 9581 1 0.00000 3 0
 9582 1 0.09995 3 0
 9583 1 0.00000 6 180
 9584 1 0.00000 3 0
 9585 1 1.99904 2 180
 9586 1 1.99904 2 180
 9587 1 1.99904 2 180
 9588 1 2.24892 2 180
 9589 1 0.14993 3 0
 9590 1 0.14993 3 0
 9591 1 0.14993 3 0
 9592 1 0.14993 3 0
 9593 1 3.99809 3 0
 9594 1 3.99809 3 0
 9595 1 0.14993 3 0
 9596 1 0.14993 3 0
 9597 1 0.14993 3 0
 9598 1 3.99809 3 0
 9599 1 0.14993 1 180
 9600 1 3.99809 3 0
 9601 1 0.44978 2 0
 9602 1 0.44978 2 0
 9603 1 0.29986 3 0
 9604 1 0.09995 3 0
 9605 1 0.00000 3 180
 9606 1 0.29986 3 0
 9607 1 0.29986 3 0
 9608 1 0.09995 3 0
 9609 1 0.00000 3 180
 9610 1 0.29986 3 0
 9611 1 0.19491 1 0
 9612 2 0.49976 3 0 0.49976 6 180
 9613 3 0.99952 2 180 0.99952 3 0 0.39981 6 0
 9614 3 0.49976 2 180 0.34983 3 180 0.39981 6 0
 9615 1 0.09995 2 180
 9616 1 0.19491 3 180
 9617 1 0.09995 6 180
 9618 1 0.09995 6 180
 9619 4 0.79962 1 0 0.39981 2 0 0.39981 3 0 0.00000 6 180
 9620 3 1.99904 1 0 0.00000 2 180 0.19990 3 0
 9621 1 0.19990 1 120
 9622 1 0.19990 1 120
 9623 2 0.02999 2 0 0.02999 3 0
 9624 2 0.09995 2 0 0.02999 3 0
 9625 2 0.09995 2 0 0.02999 3 0
 9626 2 0.02999 2 0 0.02999 3 0
 9627 2 0.09995 2 0 0.02999 3 0
 9628 2 0.02999 2 0 0.02999 3 0
 9629 2 0.09995 2 0 0.02999 3 0
 9630 2 0.09995 2 0 0.02999 3 0
 9631 1 3.19847 2 180
 9632 1 0.00000 6 180
 9633 1 0.00000 6 180
 9634 2 0.96454 1 180 3.84816 2 180
 9635 2 0.96454 1 180 3.84816 2 180
 9636 2 0.96454 1 180 3.84816 2 180
 9637 1 2.49881 2 180
 9638 1 0.00000 6 180
 9639 1 0.00000 6 180
 9640 1 2.49881 2 180
 9641 3 1.19943 1 180 0.09995 2 180 0.09995 3 180
 9642 3 1.19943 1 180 0.09995 2 180 0.09995 3 180
 9643 4 0.70266 1 180 -0.11495 2 60 0.61371 3 0 -0.42880 4 60
 9644 1 0.04998 6 180
 9645 1 0.04998 6 180
 9646 1 0.00000 1 0
 9647 1 0.19990 3 0
 9648 3 1.48989 1 180 0.37572 2 0 0.59132 3 0
 9649 3 0.49976 1 180 0.36982 2 180 0.14993 3 0
 9650 1 0.18991 3 0
 9651 1 0.22989 3 0
 9652 3 1.27939 1 180 0.55973 2 180 0.85959 3 0
 9653 1 0.11994 3 180
 9654 1 0.00000 6 180
 9655 1 0.00000 6 180
 9656 3 1.19943 1 180 0.09995 2 180 0.09995 3 180
 9657 3 1.19943 1 180 0.09995 2 180 0.09995 3 180
 9658 3 1.19943 1 180 0.09995 2 180 0.09995 3 180
 9659 4 2.01504 1 180 0.25388 2 60 0.60671 3 180 0.00000 4 0
 9660 4 2.01504 1 180 0.25388 2 60 0.60671 3 180 0.00000 4 0
 9661 1 0.00000 6 180
 9662 1 0.02999 3 0
 9663 1 0.02999 3 0
 9664 1 0.19491 3 0
 9665 1 0.14993 3 0
 9666 1 0.14993 3 0
 9667 1 0.00000 3 0
 9668 1 0.18991 3 0
 9669 1 0.28386 3 0
 9670 1 0.28386 3 0
 9671 1 0.19990 3 0
 9672 1 0.19990 3 0
 9673 1 0.19990 3 0
 9674 1 0.03998 3 0
 9675 1 0.19990 3 0
 9676 1 0.28386 3 0
 9677 1 0.02999 3 0
 9678 1 0.02999 3 0
 9679 1 0.00000 6 180
 9680 1 0.00000 3 0
 9681 1 0.14993 3 180
 9682 1 0.15992 3 0
 9683 1 0.14993 3 180
 9684 1 0.19990 3 0
 9685 1 0.19990 3 0
 9686 1 0.00000 3 0
 9687 1 0.00000 3 0
 9688 1 1.59924 3 0
 9689 2 0.24088 1 180 0.40681 2 0
 9690 2 0.24088 1 180 0.40681 2 0
 9691 1 0.09995 3 0
 9692 1 0.09995 3 0
 9693 1 0.09995 3 0
 9694 1 0.09995 3 0
 9695 1 0.09995 3 0
 9696 1 0.09995 3 0
 9697 2 0.94955 2 0 0.49976 3 0
 9698 2 0.94955 2 0 0.49976 3 0
 9699 2 0.94955 2 0 0.49976 3 0
 9700 2 0.94955 2 0 0.49976 3 0
 9701 2 0.94955 2 0 0.49976 3 0
 9702 1 0.59971 1 180
 9703 1 0.11994 3 180
 9704 1 0.11994 3 180
 9705 2 -0.14993 1 180 0.52975 2 180
 9706 1 0.29986 3 180
 9707 1 0.29986 3 180
 9708 1 0.22989 3 0
 9709 1 0.01999 3 180
 9710 1 0.29986 3 180
 9711 1 0.29986 3 180
 9712 2 0.44978 1 180 8.49594 2 180
 9713 1 0.99952 2 0
 9714 1 0.59971 1 180
 9715 1 0.11994 3 0
 9716 1 0.00000 1 0
 9717 1 0.00000 1 0
 9718 1 0.11994 3 0
 9719 3 4.99761 1 180 0.21989 2 0 1.10947 3 180
 9720 1 0.00000 1 0
 9721 1 0.00000 1 0
 9722 2 1.59924 1 0 2.49881 2 180
 9723 4 0.33184 1 0 0.43179 2 180 0.02999 3 180 0.00000 6 0
 9724 4 0.75264 1 0 0.55673 2 0 0.31685 3 180 0.00000 5 180
 9725 1 0.00000 3 0
 9726 4 0.16192 2 0 0.04698 3 180 0.10495 4 0 0.17692 5 0
 9727 4 0.10095 2 0 0.14193 3 180 0.07396 4 0 0.09695 5 0
 9728 1 0.18991 3 0
 9729 1 0.14993 3 0
 9730 1 0.00000 2 180
 9731 1 0.69967 1 180
 9732 1 0.19990 3 0
 9733 1 0.19990 3 0
 9734 1 0.19990 3 0
 9735 1 0.03998 3 0
 9736 3 0.23989 1 0 0.14993 2 0 0.26987 3 0
 9737 3 1.98905 1 0 0.63969 2 180 0.27987 3 180
 9738 1 0.00000 3 0
 9739 2 0.89957 1 0 0.29986 3 0
 9740 1 0.19990 3 0
 9741 3 0.38981 1 180 0.50976 2 180 0.86958 3 180
 9742 1 0.19990 3 0
 9743 1 0.00000 1 0
 9744 1 0.00000 3 0
 9745 1 5.19752 2 180
 9746 1 0.00000 3 180
 9747 1 0.00000 3 180
 9748 1 0.00000 3 180
 9749 1 0.29986 3 180
 9750 1 0.29986 3 180
 9751 1 0.00000 3 180
 9752 1 0.29986 3 180
 9753 1 0.00000 3 180
 9754 1 0.00000 3 180
 9755 1 0.29986 3 180
 9756 1 0.14993 3 0
 9757 1 0.14993 3 0
 9758 1 0.14993 3 0
 9759 1 0.28386 3 0
 9760 3 0.35983 1 180 0.51975 2 0 0.82960 3 180
 9761 3 0.57972 1 180 0.68967 2 180 1.15945 3 0
 9762 1 0.28386 3 0
 9763 3 0.21989 1 0 0.27987 2 180 0.88957 3 0
 9764 1 0.19990 3 0
 9765 1 0.19990 3 0
 9766 2 1.59924 1 0 2.49881 2 180
 9767 2 1.59924 1 0 2.49881 2 180
 9768 1 1.59924 1 0
 9769 1 0.19990 3 0
 9770 1 0.19990 3 0
 9771 1 0.18991 3 0
 9772 1 0.18991 3 0
 9773 1 0.22989 2 180
 9774 1 0.32984 3 0
 9775 1 1.44931 2 0
 9776 2 0.94955 2 0 0.49976 3 0
 9777 2 0.94955 2 0 0.49976 3 0
 9778 2 0.94955 2 0 0.49976 3 0
 9779 2 0.44978 1 180 8.49594 2 180
 9780 2 0.44978 1 180 8.49594 2 180
 9781 4 0.33184 1 0 0.43179 2 180 0.02999 3 180 0.00000 6 0
 9782 4 0.75264 1 0 0.55673 2 0 0.31685 3 180 0.00000 5 180
 9783 1 0.00000 3 0
 9784 2 0.05997 2 0 0.03498 5 0
 9785 3 1.98905 1 0 0.63969 2 180 0.27987 3 180
 9786 1 0.00000 3 0
 9787 1 0.89957 1 180
 9788 1 0.00000 1 0
 9789 1 0.00000 3 0
 9790 1 0.99952 2 180
 9791 1 5.19752 2 180
 9792 1 1.59924 1 0
 9793 1 1.89909 3 0
 9794 1 1.89909 3 0
 9795 4 0.83660 1 180 1.45231 2 180 0.14993 3 180 0.00000 4 0
 9796 4 0.83660 1 180 1.45231 2 180 0.14993 3 180 0.00000 4 0
 9797 3 0.78063 1 180 0.17292 2 0 0.26687 3 180
 9798 1 0.69967 1 180
 9799 3 0.78063 1 180 0.17292 2 0 0.26687 3 180
 9800 1 0.19990 3 0
 9801 4 0.83660 1 180 1.45231 2 180 0.14993 3 180 0.00000 4 0
 9802 1 0.00000 1 0
 9803 1 1.79914 1 0
 9804 2 0.23989 1 180 0.36982 3 0
 9805 1 0.69967 1 180
 9806 1 0.69967 1 180
 9807 2 4.29795 1 180 -0.39981 3 180
 9808 2 3.29842 1 180 -0.39981 3 180
 9809 1 0.04998 6 180
 9810 1 0.99952 2 180
 9811 1 5.19752 2 180
 9812 1 0.11994 3 0
 9813 1 0.11994 3 0
 9814 1 0.00000 3 0
 9815 1 0.00000 3 0
 9816 1 0.11994 3 0
 9817 1 0.00000 3 0
 9818 1 0.00000 3 0
 9819 1 0.00000 3 0
 9820 1 0.00000 3 0
 9821 1 0.00000 3 0
 9822 1 0.11994 3 0
 9823 1 0.11994 3 0
 9824 1 0.00000 3 0
 9825 1 0.00000 3 0
 9826 1 0.11994 3 0
 9827 1 0.11994 3 0
 9828 1 0.00000 3 0
 9829 1 0.11994 3 0
 9830 1 0.00000 3 0
 9831 1 0.11994 3 0
 9832 1 0.11994 3 0
 9833 1 0.00000 3 0
 9834 2 0.14993 1 180 8.49594 2 180
 9835 1 0.99952 2 180
 9836 1 0.99952 2 0
 9837 1 0.29986 3 180
 9838 3 0.90957 1 180 0.17991 2 180 0.16992 3 180
 9839 3 0.90957 1 180 0.17991 2 180 0.16992 3 180
 9840 4 0.84959 1 180 0.29986 2 180 0.25988 3 0 0.09595 4 0
 9841 1 0.29986 3 180
 9842 2 0.49976 1 180 1.29938 3 180
 9843 3 0.90957 1 180 0.17991 2 180 0.16992 3 180
 9844 2 0.49976 1 180 1.29938 3 180
 9845 1 0.29986 3 180
 9846 1 0.29986 3 180
 9847 1 0.29986 3 180
 9848 2 0.49976 1 180 1.29938 3 180
 9849 2 0.49976 1 180 1.29938 3 180
 9850 2 0.89957 1 180 0.19990 2 180
 9851 4 0.99952 1 180 0.09995 2 0 0.29986 3 180 0.19990 4 0
 9852 3 0.90957 1 180 0.17991 2 180 0.16992 3 180
 9853 3 0.90957 1 180 0.17991 2 180 0.16992 3 180
 9854 2 0.49976 1 180 1.29938 3 180
 9855 2 0.49976 1 180 1.29938 3 180
 9856 2 0.49976 1 180 1.29938 3 180
 9857 2 0.49976 1 180 1.29938 3 180
 9858 2 0.49976 1 180 1.29938 3 180
 9859 1 0.29986 3 180
 9860 2 0.49976 1 180 1.29938 3 180
 9861 2 0.49976 1 180 1.29938 3 180
 9862 1 0.29986 3 180
 9863 2 0.49976 1 180 1.29938 3 180
 9864 2 0.49976 1 180 1.29938 3 180
 9865 2 0.49976 1 180 1.29938 3 180
 9866 3 0.13993 1 180 0.16992 2 0 0.04998 3 180
 9867 3 0.13993 1 180 0.16992 2 0 0.04998 3 180
 9868 3 0.13993 1 180 0.16992 2 0 0.04998 3 180
 9869 3 0.13993 1 180 0.16992 2 0 0.04998 3 180
 9870 2 0.00000 2 0 0.00000 3 0
 9871 3 0.13993 1 180 0.16992 2 0 0.04998 3 180
 9872 3 0.13993 1 180 0.16992 2 0 0.04998 3 180
 9873 3 0.13993 1 180 0.16992 2 0 0.04998 3 180
 9874 3 0.13993 1 180 0.16992 2 0 0.04998 3 180
 9875 3 0.13993 1 180 0.16992 2 0 0.04998 3 180
 9876 3 0.13993 1 180 0.16992 2 0 0.04998 3 180
 9877 3 0.13993 1 180 0.16992 2 0 0.04998 3 180
 9878 3 0.13993 1 180 0.16992 2 0 0.04998 3 180
 9879 3 0.13993 1 180 0.16992 2 0 0.04998 3 180
 9880 2 0.00000 2 0 0.00000 3 0
 9881 2 0.49976 1 180 1.29938 3 180
 9882 2 0.49976 1 180 1.29938 3 180
 9883 1 0.11994 3 0
 9884 3 1.19943 1 180 0.39981 2 180 1.29938 3 180
 9885 2 0.49976 1 180 1.29938 3 180
 9886 1 0.11994 3 0
 9887 1 0.04998 3 180
 9888 2 0.49976 1 180 1.29938 3 180
 9889 2 0.49976 1 180 1.29938 3 180
 9890 2 0.49976 1 180 1.29938 3 180
 9891 1 0.11994 3 0
 9892 1 0.11994 3 0
 9893 3 1.19943 1 180 0.39981 2 180 1.29938 3 180
 9894 1 0.19990 3 0
 9895 1 0.19990 3 0
 9896 1 0.19990 3 0
 9897 1 0.19990 3 0
 9898 1 0.19990 3 0
 9899 1 0.18991 3 0
 9900 1 0.15992 3 0
 9901 1 0.19990 3 0
 9902 1 0.19990 3 0
 9903 1 0.19990 3 0
 9904 1 0.19990 3 0
 9905 1 0.19990 3 0
 9906 1 0.18991 3 0
 9907 4 0.06447 2 0 0.14968 3 180 0.09453 4 0 0.11246 5 0
 9908 1 0.15992 3 0
 9909 3 0.56973 1 0 0.28986 2 0 0.42979 3 0
 9910 3 0.56973 1 0 0.28986 2 0 0.42979 3 0
 9911 1 0.19990 3 0
 9912 1 0.19990 3 0
 9913 1 0.19990 3 0
 9914 1 0.19990 3 0
 9915 1 0.19990 3 0
 9916 1 0.18991 3 0
 9917 2 0.03817 2 0 0.03177 6 180
 9918 4 0.15044 2 0 0.08129 3 180 0.10819 4 0 0.20381 5 0
 9919 1 0.15992 3 0
 9920 2 0.39981 1 0 0.48977 3 0
 9921 2 0.39981 1 0 0.48977 3 0
 9922 1 0.15992 3 0
 9923 1 0.15992 3 0
 9924 1 0.15992 3 0
 9925 1 0.18991 3 0
 9926 1 0.18991 3 0
 9927 1 0.18991 3 0
 9928 1 0.29986 3 0
 9929 1 0.18991 3 0
 9930 1 0.18991 3 0
 9931 1 0.18991 3 0
 9932 1 0.19990 3 0
 9933 1 0.19990 3 0
 9934 1 0.19990 3 0
 9935 1 0.19990 3 0
 9936 1 0.19990 3 0
 9937 1 0.19990 3 0
 9938 1 0.18991 3 0
 9939 1 0.18991 3 0
 9940 1 0.15992 3 0
 9941 1 0.28386 3 0
 9942 1 0.28386 3 0
 9943 1 0.18991 3 0
 9944 1 0.18991 3 0
 9945 1 0.15992 3 0
 9946 1 0.18991 3 0
 9947 1 0.15992 3 0
 9948 1 0.15992 3 0
 9949 1 0.18991 3 0
 9950 1 0.15992 3 0
 9951 1 0.29986 3 0
 9952 1 0.15992 3 0
 9953 1 0.40980 3 180
 9954 1 0.18991 3 0
 9955 1 0.40980 3 180
 9956 1 0.15992 3 0
 9957 1 0.49976 3 0
 9958 1 0.18991 3 0
 9959 1 0.00000 3 0
 9960 1 0.15992 3 0
 9961 1 0.18991 3 0
 9962 4 -0.19216 1 0 -0.99952 2 0 0.59429 3 0 -0.07858 4 0
 9963 1 0.15992 3 0
 9964 1 0.15992 3 0
 9965 2 0.58972 1 180 1.15945 2 0
 9966 2 0.15992 1 180 0.38981 2 0
 9967 2 0.15992 1 180 0.38981 2 0
 9968 1 0.15992 3 0
 9969 4 0.49805 2 0 -0.59815 3 0 0.41726 4 0 -0.24817 5 0
 9970 4 -0.52677 1 0 0.68264 2 0 -0.20967 3 0 0.15030 4 0
 9971 1 0.28386 3 0
 9972 1 0.15243 3 0
 9973 1 0.28386 3 0
 9974 1 0.28386 3 0
 9975 1 0.17991 5 0
 9976 1 0.17991 5 0
 9977 1 0.17991 5 0
 9978 1 0.29986 3 0
 9979 1 0.17991 5 0
 9980 1 0.09995 3 0
 9981 1 0.17991 5 0
 9982 1 0.34983 3 0
 9983 1 0.11994 5 0
 9984 1 0.34983 3 0
 9985 1 0.11994 5 0
 9986 1 0.19990 3 0
 9987 1 0.17991 5 0
 9988 1 0.09995 3 0
 9989 1 0.29986 3 0
 9990 1 0.29986 3 0
 9991 1 0.09995 3 0
 9992 1 0.11994 5 0
 9993 1 0.09995 3 0
 9994 1 0.29986 3 0
 9995 1 0.19990 3 0
 9996 1 0.19990 3 0
 9997 1 0.17991 5 0
 9998 1 0.17991 5 0
 9999 1 0.09995 3 0
 10000 1 0.09995 3 0
 10001 1 0.09995 3 0
 10002 1 0.29986 3 0
 10003 1 0.09995 3 0
 10004 1 0.09995 3 0
 10005 1 0.09995 3 0
 10006 1 0.09995 3 0
 10007 1 0.29986 3 0
 10008 1 0.29986 3 0
 10009 1 3.49833 2 180
 10010 1 3.49833 2 180
 10011 1 2.49881 2 180
 10012 1 2.99857 2 180
 10013 1 3.99809 2 180
 10014 1 1.19943 2 180
 10015 1 1.19943 2 180
 10016 1 2.99857 2 180
 10017 1 0.99952 2 180
 10018 1 1.39933 2 180
 10019 1 0.00000 3 180
 10020 1 0.09995 3 0
 10021 1 0.07996 3 0
 10022 1 0.03998 3 0
 10023 1 0.28386 3 0
 10024 1 0.00000 3 0
 10025 1 0.24988 2 180
 10026 1 0.24988 2 180
 10027 1 0.00000 3 0
 10028 1 0.00000 3 0
 10029 1 0.27987 3 0
 10030 1 0.28386 3 0
 10031 1 0.00000 3 0
 10032 1 0.15992 3 0
 10033 1 0.03998 3 0
 10034 1 0.00000 3 0
 10035 1 0.00000 3 0
 10036 1 0.27987 3 0
 10037 1 1.19943 2 180
 10038 1 1.19943 2 180
 10039 1 2.99857 2 180
 10040 1 2.99857 2 180
 10041 1 0.03998 3 0
 10042 1 0.79962 3 0
 10043 1 0.09995 3 0
 10044 1 0.07996 3 0
 10045 1 0.00000 1 0
 10046 1 0.00000 1 0
 10047 1 0.00000 1 0
 10048 1 0.00000 1 0
 10049 1 0.00000 1 0
 10050 1 0.00000 1 0
 10051 1 2.01903 2 0
 10052 1 0.00000 3 0
 10053 3 0.23969 1 180 0.21740 2 180 0.12174 3 180
 10054 3 0.23969 1 180 0.21740 2 180 0.12174 3 180
 10055 1 0.29986 3 180
 10056 1 0.29986 3 180
 10057 1 0.29986 3 180
 10058 1 0.29986 3 180
 10059 1 0.00000 3 180
 10060 1 0.00000 3 180
 10061 1 0.29986 3 180
 10062 1 0.29986 3 180
 10063 1 0.00000 3 180
 10064 1 0.00000 3 180
 10065 1 0.00000 3 180
 10066 1 0.00000 3 180
 10067 1 0.29986 3 180
 10068 1 0.29986 3 180
 10069 1 5.19752 2 180
 10070 2 1.59924 1 180 0.89957 2 0
 10071 1 0.09995 3 0
 10072 1 0.00000 3 0
 10073 2 0.19990 1 180 1.59924 2 0
 10074 1 0.28386 3 0
 10075 1 0.13993 3 0
 10076 1 0.00000 3 0
 10077 1 0.02999 3 0
 10078 1 0.02999 3 0
 10079 1 0.19990 3 0
 10080 1 0.19990 3 0
 10081 1 0.19990 3 0
 10082 1 0.19990 3 0
 10083 1 0.00000 1 0
 10084 1 0.00000 1 0
 10085 1 0.19990 3 0
 10086 3 0.13993 1 0 0.96954 2 0 0.10995 3 180
 10087 1 0.28386 3 0
 10088 1 0.19990 3 0
 10089 1 0.19990 3 0
 10090 1 0.19990 3 0
 10091 1 0.19990 3 0
 10092 1 0.00000 1 0
 10093 1 0.00000 3 0
 10094 1 0.00000 3 0
 10095 1 0.00000 1 0
 10096 1 0.00000 1 0
 10097 1 0.00000 1 0
 10098 3 0.25988 1 180 0.38981 2 180 0.11994 3 180
 10099 1 0.19990 3 0
 10100 3 1.62922 1 180 0.48977 2 0 0.56973 3 0
 10101 3 0.41980 1 0 1.52927 2 180 1.57925 3 180
 10102 3 1.62922 1 180 0.48977 2 0 0.56973 3 0
 10103 6 1.36935 1 0 0.33984 2 0 0.19990 3 180 0.01999 4 180 0.13993 5 0 0.05997 6 0
 10104 3 0.54974 1 0 1.62922 2 180 1.42932 3 180
 10105 1 0.00000 3 0
 10106 1 0.00000 3 0
 10107 1 0.00000 3 0
 10108 1 0.00000 3 0
 10109 1 0.00000 3 0
 10110 2 1.59924 1 0 2.49881 2 180
 10111 2 1.59924 1 0 2.49881 2 180
 10112 2 2.74869 2 180 0.29986 4 0
 10113 2 2.74869 2 180 0.29986 4 0
 10114 1 0.18991 3 0
 10115 3 0.62970 1 180 0.01000 2 0 0.14993 3 0
 10116 3 0.13993 1 180 0.53974 2 0 0.68967 3 0
 10117 3 0.61970 1 180 0.65968 2 180 0.71966 3 180
 10118 3 0.41980 1 180 0.14993 2 180 0.94955 3 180
 10119 3 0.19990 1 0 0.64969 2 0 0.21989 3 0
 10120 3 1.48929 1 0 0.08996 2 180 0.78962 3 180
 10121 3 1.08948 1 0 0.08996 2 0 0.66968 3 180
 10122 3 0.01999 1 0 0.55973 2 0 0.48977 3 0
 10123 1 0.19990 3 0
 10124 3 0.04998 1 0 0.09995 2 180 0.01000 3 180
 10125 1 0.18991 3 0
 10126 1 0.18991 3 0
 10127 3 0.83960 1 0 0.97953 2 180 1.45930 3 0
 10128 3 0.52975 1 180 0.41980 2 180 0.29986 3 180
 10129 2 1.59924 1 0 2.49881 2 180
 10130 1 9.99522 2 180
 10131 1 9.99522 2 180
 10132 1 0.15992 3 0
 10133 5 0.89957 1 0 2.09900 2 180 0.21989 3 0 0.24988 5 180 0.09995 6 0
 10134 5 0.89957 1 0 2.09900 2 180 0.21989 3 0 0.24988 5 180 0.09995 6 0
 10135 1 0.99952 2 180
 10136 3 12.05314 1 0 2.06511 2 0 0.22609 3 0
 10137 1 4.29795 2 180
 10138 1 0.99952 2 180
 10139 1 0.99952 2 180
 10140 1 2.54059 2 180
 10141 1 3.09852 2 180
 10142 1 3.09852 2 180
 10143 1 2.39885 2 180
 10144 1 2.39885 2 180
 10145 1 3.09852 2 180
 10146 1 4.49785 2 180
 10147 1 0.22989 2 180
 10148 1 0.49976 4 180
 10149 1 0.19491 3 0
 10150 1 0.13993 3 0
 10151 1 0.19990 3 0
 10152 1 0.19491 3 0
 10153 1 0.19990 3 0
 10154 2 0.49976 2 0 0.29986 3 0
 10155 1 0.11994 3 0
 10156 3 0.19990 1 0 0.26987 2 0 0.00000 3 0
 10157 2 0.08996 2 180 0.56973 3 0
 10158 1 0.18991 3 0
 10159 1 0.22989 2 180
 10160 1 0.22989 2 180
 10161 1 0.22989 2 180
 10162 1 0.19990 3 0
 10163 1 0.19990 3 0
 10164 1 0.19491 3 0
 10165 1 0.19491 3 0
 10166 2 0.49976 3 0 0.49976 6 180
 10167 1 0.19491 3 0
 10168 1 0.19491 3 0
 10169 1 0.95095 3 0
 10170 1 0.34464 3 180
 10171 1 0.01829 3 180
 10172 1 0.19491 3 0
 10173 1 0.19491 3 0
 10174 1 0.49976 4 180
 10175 1 0.19491 3 0
 10176 4 0.38482 1 0 0.41980 2 0 0.07996 3 0 0.05497 4 0
 10177 4 0.38482 1 180 0.41980 2 0 0.07996 3 180 0.05497 4 0
 10178 1 0.18491 3 0
 10179 1 0.00000 6 180
 10180 1 0.00000 6 180
 10181 2 2.74869 2 180 0.29986 4 0
 10182 2 2.74869 2 180 0.29986 4 0
 10183 2 2.74869 2 180 0.29986 4 0
 10184 2 1.59924 1 0 2.49881 2 180
 10185 1 1.79914 1 0
 10186 3 0.37982 1 180 0.12994 2 180 0.28986 3 180
 10187 3 0.17991 1 0 0.05997 2 0 0.24988 3 0
 10188 2 1.59924 1 0 2.49881 2 180
 10189 2 1.59924 1 0 2.49881 2 180
 10190 1 0.18991 3 0
 10191 1 0.18991 3 0
 10192 3 0.52975 1 180 0.41980 2 180 0.29986 3 180
 10193 3 0.62970 1 180 0.01000 2 0 0.14993 3 0
 10194 3 0.13993 1 180 0.53974 2 0 0.68967 3 0
 10195 3 0.61970 1 180 0.65968 2 180 0.71966 3 180
 10196 3 0.41980 1 180 0.14993 2 180 0.94955 3 180
 10197 3 0.83960 1 0 0.97953 2 180 1.45930 3 0
 10198 3 0.19990 1 0 0.64969 2 0 0.21989 3 0
 10199 3 1.48929 1 0 0.08996 2 180 0.78962 3 180
 10200 3 1.08948 1 0 0.08996 2 0 0.66968 3 180
 10201 3 0.04998 1 0 0.09995 2 180 0.01000 3 180
 10202 3 0.01999 1 0 0.55973 2 0 0.48977 3 0
 10203 1 1.49928 2 180
 10204 1 1.49928 2 180
 10205 1 9.99522 2 180
 10206 1 1.99904 2 180
 10207 2 2.24892 2 180 1.29938 3 0
 10208 1 0.99952 2 180
 10209 1 7.99618 2 180
 10210 2 0.69967 1 0 5.99713 2 180
 10211 1 0.01999 2 180
 10212 1 0.04998 1 0
 10213 1 0.04998 1 0
 10214 1 0.99952 2 180
 10215 1 3.09852 2 180
 10216 1 3.09852 2 180
 10217 1 0.03998 3 0
 10218 1 3.09852 2 180
 10219 1 3.09852 2 180
 10220 1 4.19799 2 180
 10221 1 4.19799 2 180
 10222 1 4.19799 2 180
 10223 1 4.19799 2 180
 10224 1 2.39885 2 180
 10225 1 4.19799 2 180
 10226 1 2.39885 2 180
 10227 1 4.49785 2 180
 10228 1 4.49785 2 180
 10229 1 4.49785 2 180
 10230 1 4.49785 2 180
 10231 2 0.84959 1 0 0.49976 2 180
 10232 2 0.49976 2 180 1.09947 3 180
 10233 1 5.19752 2 180
 10234 1 5.19752 2 180
 10235 1 2.24892 2 180
 10236 1 0.09995 3 180
 10237 1 2.59876 2 180
 10238 1 2.59876 2 180
 10239 1 0.19491 3 0
 10240 1 0.19491 3 0
 10241 1 0.14993 3 0
 10242 3 1.49928 1 0 0.29986 2 180 0.49976 3 0
 10243 4 0.49976 1 0 0.44978 3 180 0.44978 4 180 0.24988 5 180
 10244 4 0.49976 1 0 0.44978 3 180 0.44978 4 180 0.24988 5 180
 10245 1 0.49976 1 180
 10246 1 1.09947 1 180
 10247 1 0.39981 4 0
 10248 1 0.99952 3 0
 10249 1 0.49976 1 180
 10250 1 1.09947 1 180
 10251 1 0.39981 4 0
 10252 1 0.99952 3 0
 10253 1 0.14993 3 0
 10254 1 0.14993 3 0
 10255 1 0.69967 3 0
 10256 1 0.14993 3 0
 10257 1 0.14993 3 0
 10258 1 0.14993 3 0
 10259 1 0.14993 3 0
 10260 1 0.14993 3 0
 10261 1 0.14993 3 0
 10262 1 0.14993 3 0
 10263 1 0.14993 3 0
 10264 1 0.44978 2 0
 10265 1 0.14993 3 0
 10266 1 0.89957 6 0
 10267 1 0.89957 6 0
 10268 1 0.14993 3 0
 10269 1 0.14993 3 0
 10270 1 0.49976 3 0
 10271 1 0.44978 2 0
 10272 1 0.44978 2 0
 10273 1 1.74916 3 0
 10274 2 0.59971 1 0 0.69967 3 0
 10275 2 0.59971 1 0 0.69967 3 0
 10276 1 1.09947 1 180
 10277 1 1.09947 1 180
 10278 1 0.00000 3 180
 10279 1 0.19990 3 180
 10280 1 1.09947 1 180
 10281 1 1.09947 1 180
 10282 1 0.00000 3 180
 10283 1 0.29986 3 0
 10284 1 0.14993 3 0
 10285 1 0.14993 3 0
 10286 1 1.74916 3 0
 10287 1 0.49976 3 0
 10288 1 0.14993 3 0
 10289 1 0.14993 3 0
 10290 1 0.14993 3 0
 10291 1 0.14993 3 0
 10292 1 1.89909 2 0
 10293 1 1.89909 2 0
 10294 1 0.39981 6 0
 10295 3 2.39885 1 180 0.39981 2 180 1.49928 3 240
 10296 3 2.39885 1 180 0.39981 2 180 1.49928 3 240
 10297 1 0.49976 3 0
 10298 2 2.74869 2 180 0.29986 4 0
 10299 1 0.29986 3 180
 10300 3 0.49976 1 180 1.99904 2 0 0.99952 3 0
 10301 3 0.49976 1 180 1.99904 2 0 0.99952 3 0
 10302 1 0.99952 2 180
 10303 2 0.49976 2 0 0.29986 3 0
 10304 2 0.49976 2 0 0.39981 3 0
 10305 2 0.49976 2 0 0.29986 3 0
 10306 3 1.89909 1 180 0.39981 2 180 0.59971 3 180
 10307 1 0.02999 3 0
 10308 1 0.99952 2 180
 10309 1 3.19847 2 180
 10310 1 1.29938 2 180
 10311 2 0.55973 1 180 6.99666 2 180
 10312 2 0.55973 1 180 6.99666 2 180
 10313 1 0.18991 3 0
 10314 1 0.18991 3 0
 10315 3 1.29938 1 0 0.69967 2 0 0.49976 3 0
 10316 1 0.18991 3 0
 10317 1 0.15992 3 0
 10318 1 2.49881 2 180
 10319 2 1.59924 1 0 2.49881 2 180
 10320 2 1.59924 1 0 2.49881 2 180
 10321 3 0.39981 1 180 0.39981 2 180 1.29938 3 0
 10322 1 0.99952 2 180
 10323 3 0.59971 1 180 0.49976 2 180 0.99952 3 0
 10324 1 0.29986 3 0
 10325 3 1.89909 1 180 0.39981 2 180 0.59971 3 180
 10326 1 0.02999 3 0
 10327 1 0.99952 2 180
 10328 1 3.19847 2 180
 10329 1 1.29938 2 180
 10330 2 0.55973 1 180 6.99666 2 180
 10331 2 0.55973 1 180 6.99666 2 180
 10332 2 0.55973 1 180 6.99666 2 180
 10333 2 0.55973 1 180 6.99666 2 180
 10334 2 0.55973 1 180 6.99666 2 180
 10335 2 0.55973 1 180 6.99666 2 180
 10336 1 0.29986 3 0
 10337 1 0.29986 3 0
 10338 1 0.29986 3 0
 10339 1 0.29986 3 0
 10340 1 0.34983 3 180
 10341 1 0.14993 3 180
 10342 1 0.09995 3 180
 10343 4 0.49976 1 0 2.19895 2 180 1.09947 3 0 0.59971 4 0
 10344 1 0.99952 2 180
 10345 1 0.14993 3 180
 10346 1 0.99952 2 180
 10347 4 0.49976 1 0 2.19895 2 180 1.09947 3 0 0.59971 4 0
 10348 4 0.49976 1 0 2.19895 2 180 1.09947 3 0 0.59971 4 0
 10349 2 1.99904 1 180 0.89957 2 0
 10350 1 0.99952 1 180
 10351 1 0.00000 3 0
 10352 1 0.04998 6 180
 10353 1 0.27687 3 0
 10354 1 0.27687 3 0
 10355 1 1.32936 1 0
 10356 1 1.32936 1 0
 10357 1 0.00000 3 0
 10358 3 0.90957 1 180 0.17991 2 180 0.16992 3 180
 10359 3 0.90957 1 180 0.17991 2 180 0.16992 3 180
 10360 1 0.29986 3 180
 10361 3 0.85959 1 0 1.90909 2 0 1.51927 3 180
 10362 3 1.37934 1 180 0.57972 2 0 1.02951 3 0
 10363 1 0.29986 3 180
 10364 3 0.21989 1 0 0.27987 2 180 0.88957 3 0
 10365 3 0.93955 1 0 0.87958 2 180 2.08900 3 0
 10366 1 0.00000 1 0
 10367 1 0.00000 1 0
 10368 2 0.14993 1 0 8.49594 2 180
 10369 2 0.14993 1 180 8.49594 2 180
 10370 3 0.38981 1 180 0.50976 2 180 0.86958 3 180
 10371 1 1.99904 2 180
 10372 1 0.99952 2 180
 10373 1 0.99952 2 180
 10374 1 4.99761 2 180
 10375 1 0.99952 2 180
 10376 1 2.49881 2 180
 10377 1 2.37886 2 180
 10378 2 0.34983 1 180 0.61970 2 0
 10379 1 2.37886 2 180
 10380 2 0.34983 1 0 0.61970 2 0
 10381 1 3.99809 2 180
 10382 2 0.29986 1 0 1.94907 2 180
 10383 2 1.09947 1 180 1.94907 2 180
 10384 1 3.99809 3 180
 10385 1 0.09995 2 180
 10386 1 0.09995 6 0
 10387 1 0.00000 3 0
 10388 1 2.24892 2 180
 10389 1 2.04902 2 180
 10390 1 2.04902 2 180
 10391 2 0.14993 1 0 8.49594 2 180
 10392 1 4.89766 2 180
 10393 1 0.00000 6 180
 10394 1 0.00000 6 180
 10395 1 0.00000 6 180
 10396 1 0.13993 3 0
 10397 1 0.15992 3 0
 10398 1 0.13993 3 0
 10399 1 0.04998 6 180
 10400 1 0.00000 6 180
 10401 1 0.19990 3 0
 10402 1 0.19990 3 0
 10403 1 0.19990 3 0
 10404 1 0.09995 3 0
 10405 1 0.13993 3 0
 10406 1 -0.09995 3 0
 10407 1 0.19990 3 0
 10408 1 0.00000 6 0
 10409 1 0.04998 6 180
 10410 1 0.00000 6 180
 10411 1 0.18991 3 0
 10412 1 0.15992 3 0
 10413 1 0.00000 6 180
 10414 1 0.09995 3 0
 10415 1 0.13993 3 0
 10416 1 -0.09995 3 0
 10417 1 0.00000 6 0
 10418 1 0.04998 6 180
 10419 1 0.00000 6 180
 10420 1 0.15243 3 0
 10421 1 0.00000 6 180
 10422 1 0.10995 3 0
 10423 1 0.08996 3 0
 10424 1 0.13993 3 0
 10425 1 -0.09995 3 0
 10426 1 0.04998 6 180
 10427 1 -0.09995 3 0
 10428 1 0.09995 3 0
 10429 1 0.14993 3 0
 10430 1 0.14993 3 0
 10431 1 0.19990 3 0
 10432 1 0.29986 3 0
 10433 1 0.29986 3 0
 10434 1 0.29986 3 0
 10435 1 1.99904 2 180
 10436 1 0.79962 2 180
 10437 1 0.99952 2 180
 10438 1 0.99952 2 180
 10439 1 0.99952 2 180
 10440 1 0.99952 2 180
 10441 1 0.99952 2 180
 10442 1 0.89957 2 180
 10443 1 0.89957 2 180
 10444 1 0.89957 2 180
 10445 1 0.99952 2 180
 10446 1 0.99952 2 180
 10447 1 0.99952 2 180
 10448 1 0.89957 2 180
 10449 1 0.89957 2 180
 10450 1 0.99952 2 180
 10451 1 0.99952 2 180
 10452 1 0.99952 2 180
 10453 1 0.99952 2 180
 10454 1 0.99952 2 180
 10455 1 0.99952 2 180
 10456 1 0.99952 3 180
 10457 1 0.09995 2 180
 10458 1 1.49928 2 180
 10459 1 1.49928 2 180
 10460 1 3.49833 2 180
 10461 1 1.99904 2 180
 10462 1 3.49833 2 180
 10463 1 0.00000 2 180
 10464 1 1.49928 2 180
 10465 1 1.49928 2 180
 10466 1 0.99952 2 180
 10467 1 0.99952 2 180
 10468 1 0.99952 2 180
 10469 1 0.99952 2 180
 10470 1 0.00000 2 180
 10471 1 0.99952 2 180
 10472 1 0.13993 3 0
 10473 1 0.04998 6 180
 10474 1 0.00000 3 0
 10475 1 0.00000 3 0
 10476 1 0.09995 3 0
 10477 1 0.19990 3 0
 10478 1 0.19990 3 0
 10479 1 0.19990 3 0
 10480 1 0.19990 3 0
 10481 1 0.19990 3 0
 10482 1 0.19990 3 0
 10483 1 0.13993 3 0
 10484 1 0.04998 6 180
 10485 1 0.00000 3 0
 10486 1 0.00000 3 0
 10487 1 0.25988 3 0
 10488 1 0.09995 3 0
 10489 1 0.18991 3 0
 10490 1 0.15992 3 0
 10491 1 0.18991 3 0
 10492 1 0.13993 3 0
 10493 1 0.04998 6 180
 10494 1 0.00000 3 0
 10495 1 0.00000 3 0
 10496 1 0.15243 3 0
 10497 1 2.04902 2 180
 10498 1 2.04902 2 180
 10499 1 0.29986 3 0
 10500 1 0.22989 3 0
 10501 2 0.44978 1 180 8.49594 2 180
 10502 1 0.00000 3 180
 10503 1 0.00000 3 180
 10504 1 4.89766 2 180
 10505 1 0.00000 4 0
 10506 1 0.04998 4 0
 10507 1 0.00000 2 0
 10508 1 0.04998 4 0
 10509 1 0.00000 4 0
 10510 1 0.00000 2 0
 10511 1 0.00000 2 0
 10512 1 2.99857 2 180
 10513 1 0.00000 2 0
 10514 1 0.00000 6 0
 10515 1 0.00000 6 0
 10516 1 0.00000 2 180
 10517 1 0.00000 2 0
 10518 1 0.13993 3 0
 10519 1 0.19990 3 0
 10520 1 0.19990 3 0
 10521 1 0.19990 3 0
 10522 1 0.19990 3 0
 10523 1 0.19990 3 0
 10524 1 0.09995 3 0
 10525 1 0.13993 3 0
 10526 1 0.18991 3 0
 10527 1 0.15992 3 0
 10528 2 0.44978 1 180 8.49594 2 180
 10529 1 0.19990 3 0
 10530 1 0.19990 3 0
 10531 1 0.00000 6 180
 10532 1 0.04998 6 180
 10533 1 0.00000 6 180
 10534 1 0.00000 6 180
 10535 1 0.00000 6 180
 10536 1 0.13993 3 0
 10537 1 0.19990 3 0
 10538 1 0.13993 3 0
 10539 1 2.49881 2 180
 10540 1 0.99952 2 180
 10541 1 0.09995 2 180
 10542 1 0.29986 3 0
 10543 3 1.41932 1 180 0.81961 2 0 1.01951 3 0
 10544 2 1.40933 1 0 1.27939 2 0
 10545 2 1.59924 1 0 3.99809 2 180
 10546 1 0.19990 3 0
 10547 1 0.99952 2 180
 10548 1 1.58924 2 180
 10549 2 0.48977 2 180 0.19990 4 0

 Improper Coeffs #harmonic

 1 2.99857 0.00
 2 0.49976 0.00
 3 0.49976 0.00
 4 0.49976 0.00
 5 0.49976 0.00
 6 0.99952 0.00
 7 0.49976 0.00
 8 0.49976 0.00
 9 0.00000 0.00
 10 0.00000 0.00
 11 0.44978 0.00
 12 0.44978 0.00
 13 1.19943 0.00
 14 1.19943 0.00
 15 44.97850 0.00
 16 44.97850 0.00
 17 44.97850 0.00
 18 44.97850 0.00
 19 44.97850 0.00
 20 119.94267 0.00
 21 44.97850 0.00
 22 44.97850 0.00
 23 44.97850 0.00
 24 44.97850 0.00
 25 44.97850 0.00
 26 24.98806 0.00
 27 17.99140 0.00
 28 28.28898 0.00
 29 18.79352 0.00
 30 52.97468 0.00
 31 52.97468 0.00
 32 52.97468 0.00
 33 22.98901 0.00
 34 29.98567 0.00
 35 52.97468 0.00
 36 52.97468 0.00
 37 9.99522 0.00
 38 52.97468 0.00
 39 52.97468 0.00
 40 52.97468 0.00
 41 22.98901 0.00
 42 52.97468 0.00
 43 52.97468 0.00
 44 9.99522 0.00
 45 15.96227 0.00
 46 64.27877 0.00
 47 64.27877 0.00
 48 119.95076 0.00
 49 119.95076 0.00
 50 29.98567 0.00
 51 12.99379 0.00
 52 0.99952 0.00
 53 29.98567 0.00
 54 12.99379 0.00
 55 84.95939 0.00
 56 39.98089 0.00
 57 84.95939 0.00
 58 25.98758 0.00
 59 29.98567 0.00
 60 29.98567 0.00
 61 29.98567 0.00
 62 31.98471 0.00
 63 119.94267 0.00
 64 119.94267 0.00
 65 119.94267 0.00
 66 119.94267 0.00
 67 119.94267 0.00
 68 119.94267 0.00
 69 69.96656 0.00
 70 119.94267 0.00
 71 119.94267 0.00
 72 119.94267 0.00
 73 119.94267 0.00
 74 43.98098 0.00
 75 119.94267 0.00
 76 119.94267 0.00
 77 119.94267 0.00
 78 119.94267 0.00
 79 119.94267 0.00
 80 119.94267 0.00
 81 119.94267 0.00
 82 119.94267 0.00
 83 56.62263 0.00
 84 70.96608 0.00
 85 119.94267 0.00
 86 119.94267 0.00
 87 119.94267 0.00
 88 119.94267 0.00
 89 119.94267 0.00
 90 119.94267 0.00
 91 119.94267 0.00
 92 119.94267 0.00
 93 119.94267 0.00
 94 66.34808 0.00
 95 49.97611 0.00
 96 65.96847 0.00
 97 65.96847 0.00
 98 71.96560 0.00
 99 61.97038 0.00
 100 61.97038 0.00
 101 61.97038 0.00
 102 61.97038 0.00
 103 53.95951 0.00
 104 52.97468 0.00
 105 64.96894 0.00
 106 64.96894 0.00
 107 64.96894 0.00
 108 61.85963 0.00
 109 66.26243 0.00
 110 48.74080 0.00
 111 74.96417 0.00
 112 95.95413 0.00
 113 95.95413 0.00
 114 95.95413 0.00
 115 95.95413 0.00
 116 95.95413 0.00
 117 95.95413 0.00
 118 95.95413 0.00
 119 95.95413 0.00
 120 95.95413 0.00
 121 95.95413 0.00
 122 95.95413 0.00
 123 55.06798 0.00
 124 66.96799 0.00
 125 19.99044 0.00
 126 59.97133 0.00
 127 13.99331 0.00
 128 13.99331 0.00
 129 52.97468 0.00
 130 52.97468 0.00
 131 49.97611 0.00
 132 49.97611 0.00
 133 49.97611 0.00
 134 49.49364 0.00
 135 40.83518 0.00
 136 71.96560 0.00
 137 87.95796 0.00
 138 87.32506 0.00
 139 68.63629 0.00
 140 87.95796 0.00
 141 71.96560 0.00
 142 87.95796 0.00
 143 71.96560 0.00
 144 92.99505 0.00
 145 71.96560 0.00
 146 71.96560 0.00
 147 59.97133 0.00
 148 69.96656 0.00
 149 69.96656 0.00
 150 69.96656 0.00
 151 97.95318 0.00
 152 59.97133 0.00
 153 86.45867 0.00
 154 79.96178 0.00
 155 79.96178 0.00
 156 79.96178 0.00
 157 144.93072 0.00
 158 106.94888 0.00
 159 61.97038 0.00
 160 61.97038 0.00
 161 84.95939 0.00
 162 83.15805 0.00
 163 79.96178 0.00
 164 45.25197 0.00
 165 0.99952 0.00
 166 89.95700 0.00
 167 89.95700 0.00
 168 89.95700 0.00
 169 89.95700 0.00
 170 89.95700 0.00
 171 119.94267 0.00
 172 109.94744 0.00
 173 89.95700 0.00
 174 89.95700 0.00
 175 89.95700 0.00
 176 28.58634 0.00
 177 44.97850 0.00
 178 42.97946 0.00
 179 42.97946 0.00
 180 0.00000 0.00
 181 14.99283 0.00
 182 89.95700 0.00
 183 59.97133 0.00
 184 89.95700 0.00
 185 89.95700 0.00
 186 51.97516 0.00
 187 77.96273 0.00
 188 89.95700 0.00
 189 89.95700 0.00
 190 89.95700 0.00
 191 50.97563 0.00
 192 30.98519 0.00
 193 38.98137 0.00
 194 38.98137 0.00
 195 38.98137 0.00
 196 83.95987 0.00
 197 57.97229 0.00
 198 83.95987 0.00
 199 57.97229 0.00
 200 51.97516 0.00
 201 51.97516 0.00
 202 51.97516 0.00
 203 27.98662 0.00
 204 46.97754 0.00
 205 -0.99952 0.00
 206 41.97993 0.00
 207 41.97993 0.00
 208 41.97993 0.00
 209 41.97993 0.00
 210 21.98949 0.00
 211 18.99092 0.00
 212 18.99092 0.00
 213 39.98089 0.00
 214 59.97133 0.00
 215 59.97133 0.00
 216 39.98089 0.00
 217 39.98089 0.00
 218 39.98089 0.00
 219 39.98089 0.00
 220 39.98089 0.00
 221 39.98089 0.00
 222 47.97707 0.00
 223 49.97611 0.00
 224 39.98089 0.00
 225 53.57439 0.00
 226 50.77573 0.00
 227 -2.49881 0.00
 228 8.99570 0.00
 229 119.94267 0.00
 230 19.99044 0.00
 231 19.99044 0.00
 232 95.95413 0.00
 233 95.95413 0.00
 234 95.95413 0.00
 235 95.95413 0.00
 236 95.95413 0.00
 237 19.99044 0.00
 238 19.99044 0.00
 239 49.97611 0.00
 240 49.97611 0.00
 241 69.96656 0.00
 242 69.96656 0.00
 243 6.99666 0.00
 244 5.99713 0.00
 245 89.95700 0.00
 246 109.94744 0.00
 247 89.95700 0.00
 248 39.98089 0.00
 249 39.98089 0.00
 250 59.97133 0.00
 251 2.99857 0.00
 252 20.79006 0.00
 253 29.38595 0.00
 254 137.33435 0.00
 255 40.58060 0.00
 256 18.29126 0.00
 257 32.68438 0.00
 258 99.95222 0.00
 259 44.97850 0.00
 260 44.97850 0.00
 261 61.97038 0.00
 262 61.97038 0.00
 263 0.59971 0.00
 264 0.59971 0.00
 265 19.99044 0.00
 266 19.99044 0.00
 267 44.97850 0.00
 268 44.97850 0.00
 269 70.96608 0.00
 270 119.94267 0.00
 271 119.94267 0.00
 272 119.94267 0.00
 273 119.94267 0.00
 274 119.94267 0.00
 275 66.34808 0.00
 276 119.94267 0.00
 277 0.00000 0.00
 278 119.94267 0.00
 279 119.94267 0.00
 280 119.94267 0.00
 281 119.94267 0.00
 282 119.94267 0.00
 283 0.00000 0.00
 284 0.00000 0.00
 285 19.99044 0.00
 286 19.99044 0.00
 287 19.99044 0.00
 288 0.00000 0.00
 289 0.00000 0.00
 290 0.79962 0.00
 291 38.98137 0.00
 292 54.97372 0.00
 293 89.95700 0.00
 294 0.00000 180.00
 295 119.94267 0.00
 296 119.94267 0.00
 297 0.00000 0.00
 298 0.00000 0.00
 299 44.97850 0.00
 300 44.97850 0.00
 301 0.00000 0.00
 302 44.97850 0.00
 303 44.97850 0.00
 304 13.99331 0.00
 305 95.95413 0.00
 306 14.99283 0.00
 307 49.97611 0.00
 308 -4.99761 0.00
 309 17.99140 0.00
 310 106.94888 0.00
 311 44.97850 0.00
 312 -1.99904 0.00
 313 19.99044 0.00
 314 3.99809 0.00
 315 119.94267 0.00
 316 99.95222 0.00
 317 95.95413 0.00
 318 95.95413 0.00
 319 95.95413 0.00
 320 95.95413 0.00
 321 0.99952 0.00
 322 3.99809 0.00
 323 89.95700 0.00
 324 89.95700 0.00
 325 79.96178 0.00
 326 89.95700 0.00
 327 13.99331 0.00
 328 99.95222 0.00
 329 95.95413 0.00
 330 95.95413 0.00
 331 89.95700 0.00
 332 89.95700 0.00
 333 89.95700 0.00
 334 39.98089 0.00
 335 95.95413 0.00
 336 95.95413 0.00
 337 19.99044 0.00
 338 14.99283 0.00
 339 12.99379 0.00
 340 12.99379 0.00
 341 39.98089 0.00
 342 52.97468 0.00
 343 52.97468 0.00
 344 61.86043 0.00
 345 119.94266 0.00

 Atoms #full

 1 1 323 -0.9215 25.0000 23.5300 24.8200 # NG311
 2 1 255  0.4476 25.0000 23.3900 23.8100 # HGPAM1
 3 1 323 -0.9214 25.0000 26.4700 25.1800 # NG311
 4 1 255  0.4476 25.0000 26.6100 26.1900 # HGPAM1
 5 1 110  0.1584 23.7700 24.2600 25.2400 # CG321
 6 1 241  0.0391 23.7200 24.2400 26.3300 # HGA2
 7 1 241  0.0391 22.9000 23.7200 24.8500 # HGA2
 8 1 110  0.1580 23.7700 25.7400 24.7600 # CG321
 9 1 241  0.0392 22.9000 26.2800 25.1500 # HGA2
 10 1 241  0.0392 23.7200 25.7600 23.6700 # HGA2
 11 1 110  0.1599 26.2300 25.7400 24.7600 # CG321
 12 1 241  0.0387 27.1000 26.2800 25.1500 # HGA2
 13 1 241  0.1600 26.2800 25.7600 23.6700 # HGA2
 14 1 110  0.0387 26.2300 24.2600 25.2400 # CG321
 15 1 241  0.0387 26.2800 24.2400 26.3300 # HGA2
 16 1 241  0.0387 27.1000 23.7200 24.8500 # HGA2
 17 2 96 -0.2550 25.6700 23.7700 25.0000 # CG2R61
 18 2 96  0.1383 24.2700 23.8000 25.0000 # CG2R61
 19 2 96 -0.2516 23.6000 25.0400 25.0000 # CG2R61
 20 2 96  0.1327 24.3300 26.2300 25.0000 # CG2R61
 21 2 96 -0.2506 25.7300 26.1900 25.0000 # CG2R61
 22 2 96  0.1361 26.4000 24.9700 25.0000 # CG2R61
 23 2 261  0.2248 26.2000 22.8300 25.0000 # HGR61
 24 2 261  0.2235 22.5200 25.0500 25.0000 # HGR61
 25 2 261  0.2241 26.2800 27.1300 25.0000 # HGR61
 26 2 89  0.5542 23.6900 27.5700 25.0000 # CG2O5
 27 2 386 -0.4869 24.2900 28.6200 25.0000 # OG2D1
 28 2 89  0.5522 23.4200 22.5800 25.0000 # CG2O5
 29 2 386 -0.4864 22.2200 22.5800 25.0000 # OG2D1
 30 2 89  0.5528 27.8800 24.8400 25.0000 # CG2O5
 31 2 386 -0.4864 28.4900 23.8100 25.0000 # OG2D1
 32 2 130 -0.1742 28.8100 26.4000 25.0000 # CLGA1
 33 2 130 -0.1738 21.8900 27.6000 25.0000 # CLGA1
 34 2 130 -0.1741 24.3100 21.0100 25.0000 # CLGA1

 Bonds

 1 764 1 2
 2 580 1 5
 3 580 1 14
 4 764 3 4
 5 580 3 8
 6 580 3 11
 7 601 5 6
 8 601 5 7
 9 563 5 8
 10 601 8 9
 11 601 8 10
 12 601 11 12
 13 601 11 13
 14 563 11 14
 15 601 14 15
 16 601 14 16
 17 395 17 18
 18 395 17 22
 19 435 17 23
 20 395 18 19
 21 314 18 28
 22 395 19 20
 23 435 19 24
 24 395 20 21
 25 314 20 26
 26 395 21 22
 27 435 21 25
 28 314 22 30
 29 1452 26 27
 30 1453 26 33
 31 1452 28 29
 32 1453 28 34
 33 1452 30 31
 34 1453 30 32

 Angles

 1 2532 2 1 5
 2 2532 2 1 14
 3 2527 5 1 14
 4 2532 4 3 8
 5 2532 4 3 11
 6 2527 8 3 11
 7 1765 1 5 6
 8 1765 1 5 7
 9 1695 1 5 8
 10 1791 6 5 7
 11 1708 6 5 8
 12 1708 7 5 8
 13 1695 3 8 5
 14 1765 3 8 9
 15 1765 3 8 10
 16 1708 5 8 9
 17 1708 5 8 10
 18 1791 9 8 10
 19 1765 3 11 12
 20 1765 3 11 13
 21 1695 3 11 14
 22 1791 12 11 13
 23 1708 12 11 14
 24 1708 13 11 14
 25 1695 1 14 11
 26 1765 1 14 15
 27 1765 1 14 16
 28 1708 11 14 15
 29 1708 11 14 16
 30 1791 15 14 16
 31 1020 18 17 22
 32 1060 18 17 23
 33 1060 22 17 23
 34 1020 17 18 19
 35 1018 17 18 28
 36 1018 19 18 28
 37 1020 18 19 20
 38 1060 18 19 24
 39 1060 20 19 24
 40 1020 19 20 21
 41 1018 19 20 26
 42 1018 21 20 26
 43 1020 20 21 22
 44 1060 20 21 25
 45 1060 22 21 25
 46 1020 17 22 21
 47 1018 17 22 30
 48 1018 21 22 30
 49 5044 20 26 27
 50 5045 20 26 33
 51 5046 27 26 33
 52 5044 18 28 29
 53 5045 18 28 34
 54 5046 29 28 34
 55 5044 22 30 31
 56 5045 22 30 32
 57 5046 31 30 32

 Dihedrals

 1 7433 2 1 5 6
 2 7433 2 1 5 7
 3 2817 2 1 5 8
 4 7428 14 1 5 6
 5 7428 14 1 5 7
 6 10543 14 1 5 8
 7 2817 2 1 14 11
 8 7433 2 1 14 15
 9 7433 2 1 14 16
 10 10543 5 1 14 11
 11 7428 5 1 14 15
 12 7428 5 1 14 16
 13 2817 4 3 8 5
 14 7433 4 3 8 9
 15 7433 4 3 8 10
 16 10543 11 3 8 5
 17 7428 11 3 8 9
 18 7428 11 3 8 10
 19 7433 4 3 11 12
 20 7433 4 3 11 13
 21 2817 4 3 11 14
 22 7428 8 3 11 12
 23 7428 8 3 11 13
 24 10543 8 3 11 14
 25 10542 1 5 8 3
 26 4251 1 5 8 9
 27 4251 1 5 8 10
 28 4251 6 5 8 3
 29 7363 6 5 8 9
 30 7363 6 5 8 10
 31 4251 7 5 8 3
 32 7363 7 5 8 9
 33 7363 7 5 8 10
 34 10542 3 11 14 1
 35 4251 3 11 14 15
 36 4251 3 11 14 16
 37 4251 12 11 14 1
 38 7363 12 11 14 15
 39 7363 12 11 14 16
 40 4251 13 11 14 1
 41 7363 13 11 14 15
 42 7363 13 11 14 16
 43 4829 22 17 18 19
 44 4073 22 17 18 28
 45 4868 23 17 18 19
 46 4076 23 17 18 28
 47 4829 18 17 22 21
 48 4073 18 17 22 30
 49 4868 23 17 22 21
 50 4076 23 17 22 30
 51 4829 17 18 19 20
 52 4868 17 18 19 24
 53 4073 28 18 19 20
 54 4076 28 18 19 24
 55 10548 17 18 28 29
 56 10549 17 18 28 34
 57 10548 19 18 28 29
 58 10549 19 18 28 34
 59 4829 18 19 20 21
 60 4073 18 19 20 26
 61 4868 24 19 20 21
 62 4076 24 19 20 26
 63 4829 19 20 21 22
 64 4868 19 20 21 25
 65 4073 26 20 21 22
 66 4076 26 20 21 25
 67 10548 19 20 26 27
 68 10549 19 20 26 33
 69 10548 21 20 26 27
 70 10549 21 20 26 33
 71 4829 20 21 22 17
 72 4073 20 21 22 30
 73 4868 25 21 22 17
 74 4076 25 21 22 30
 75 10548 17 22 30 31
 76 10549 17 22 30 32
 77 10548 21 22 30 31
 78 10549 21 22 30 32

 Impropers

 1 344 26 20 27 33
 2 344 28 18 29 34
 3 344 30 22 31 32
